LAMMPS data file via write_data, version 2 Aug 2023, timestep = 12000000, units = real

630 atoms
2 atom types
420 bonds
1 bond types
210 angles
1 angle types

-0.002 34.393 xlo xhi
-0.002 34.393 ylo yhi
-5 18 zlo zhi

Masses

1 1.008
2 15.999

Pair Coeffs # lj/cut/tip4p/long

1 0 0
2 0.1852 3.1589

Bond Coeffs # harmonic

1 450 0.9572

Angle Coeffs # harmonic

1 55 104.52

Atoms # full

76 26 2 -1.1128 7.302467006637988 5.901703460957069 3.2866815309417943 -5 -1 0
520 174 2 -1.1128 3.813591244026897 1.6554537529626967 4.268315860964758 3 2 0
312 104 1 0.5564 3.5449801670364978 8.05251800430046 5.788683774287382 -2 1 0
521 174 1 0.5564 3.169529949673511 0.9732759539902773 4.458183657150958 3 2 0
591 197 1 0.5564 0.13964007705789855 1.360009137186945 3.276599088779861 2 4 0
381 127 1 0.5564 0.2392084995458018 7.898078048819987 2.4723842714397177 1 0 0
541 181 2 -1.1128 1.8391595786838173 7.100008566220296 2.8561356038567567 -3 0 0
550 184 2 -1.1128 2.6111672123466025 4.108445419817218 5.332593584022315 -3 2 0
2 1 1 0.5564 4.6789279016524175 8.395594976104539 2.8063489990220263 1 0 0
78 26 1 0.5564 6.702906075020123 5.5397622362068075 3.9391846912949635 -5 -1 0
576 192 1 0.5564 4.577124076349973 4.492554028913793 5.214263875661175 2 -1 0
551 184 1 0.5564 2.221405874175252 4.388279780527532 6.160881964251396 -3 2 0
151 51 2 -1.1128 0.65101181055898 4.83439124423701 3.48900058356459 1 1 0
522 174 1 0.5564 3.35689441685793 2.475535526904039 4.455732870682422 3 2 0
558 186 1 0.5564 8.025525411052367 2.020133338762649 5.324227882643207 -1 3 0
543 181 1 0.5564 1.6198409892667984 6.179338167856389 2.999294240294773 -3 0 0
77 26 1 0.5564 6.800115725042015 6.5940184617638105 2.8570621052109817 -5 -1 0
552 184 1 0.5564 1.9272250616610558 4.263301573556869 4.68110718776131 -3 2 0
153 51 1 0.5564 0.3279314618901782 3.9467111799506194 3.33448775393123 1 1 0
575 192 1 0.5564 5.505074657472238 3.547630015304273 5.947695216591412 2 -1 0
304 102 2 -1.1128 6.503268372280925 1.1397989191985103 4.918776965614909 -2 4 0
542 181 1 0.5564 1.7370590356184636 7.5075820216257325 3.7161787791178713 -3 0 0
574 192 2 -1.1128 5.487766062764339 4.388170446149201 5.489991025196924 2 -1 0
1 1 2 -1.1128 4.783089914829841 7.4441225194390395 2.815435022243967 1 0 0
311 104 1 0.5564 4.3183220896868 7.362629611844673 4.685102562323151 -2 1 0
3 1 1 0.5564 4.08895979705711 7.121222281754918 2.2408341243137535 1 0 0
306 102 1 0.5564 5.556332798906733 1.1649083943353986 4.781247389840233 -2 4 0
310 104 2 -1.1128 4.32112447870691 7.515239079336198 5.6299067972945265 -2 1 0
7 3 2 -1.1128 1.5760471854060896 8.298891663872615 5.368230105763259 -1 2 0
305 102 1 0.5564 6.859774252170521 0.8453530735529983 4.080661885818417 -2 4 0
8 3 1 0.5564 0.6228240222986366 8.370282907207944 5.4182739950080165 -1 2 0
131 44 1 0.5564 7.612274736915622 8.375448383487765 4.756536547959158 0 -1 0
32 11 1 0.5564 8.482614183428442 4.5754877012698225 2.8927952064300255 0 -1 0
132 44 1 0.5564 6.24057155235621 8.30653071175093 5.393384997838283 0 -1 0
557 186 1 0.5564 8.546193240355704 3.3376713710740558 4.790473407729398 -1 3 0
449 150 1 0.5564 8.467519447705836 7.1668198102685965 3.897715157545139 0 1 0
409 137 2 -1.1128 1.8207065976989767 14.419465546746336 3.0719134313823226 0 1 0
184 62 2 -1.1128 0.4841581377886741 12.161696761897074 4.0516705344269885 5 0 0
410 137 1 0.5564 2.4759021135449877 14.311542355820444 2.3824908143693926 0 1 0
445 149 2 -1.1128 4.535767441515835 14.698724232198531 2.572168534331643 2 -2 0
154 52 2 -1.1128 8.5836271677654 11.175406293991122 5.3240568592884285 1 1 0
79 27 2 -1.1128 7.086498442090458 13.408158396996829 5.37265712019818 0 3 0
130 44 2 -1.1128 6.789317145124906 8.857863377699829 4.835584941787878 0 -1 0
194 65 1 0.5564 4.521055953763816 13.598892640305092 4.31541509428694 2 -5 0
193 65 2 -1.1128 4.509172300318642 13.587628791015087 5.272452163323758 2 -5 0
196 66 2 -1.1128 3.078432832110757 11.277263991047564 4.665161210909793 0 -1 0
195 65 1 0.5564 5.426394414836812 13.476342459494258 5.522576625056937 2 -5 0
499 167 2 -1.1128 6.254267183049963 16.95222158860582 3.4379059864916766 -2 2 0
233 78 1 0.5564 5.488868615352062 9.893806733401584 3.424670405364372 -1 2 0
598 200 2 -1.1128 6.514825255562151 12.497597406708303 2.6620177979805364 -2 -1 0
333 111 1 0.5564 8.220595989349023 15.151933133962961 5.386062052828988 -2 0 0
197 66 1 0.5564 2.299566331677763 11.703509823559514 4.307508715114194 0 -1 0
234 78 1 0.5564 4.055481988998781 10.380056737286173 3.4539776260452077 -1 2 0
402 134 1 0.5564 3.8438476842927676 16.74148427956175 5.770639731829056 2 1 0
81 27 1 0.5564 6.940691961268459 13.36097874332003 4.427843661312963 0 2 0
511 171 2 -1.1128 2.190926515850401 16.713489172369307 4.854435866704792 4 -1 0
446 149 1 0.5564 5.0098982744496485 15.53001047726877 2.55224049177406 2 -2 0
599 200 1 0.5564 6.016635436740386 11.856025651043892 2.155601250560059 -2 -1 0
447 149 1 0.5564 5.161761227616051 14.057310900438816 2.2360302847818105 2 -2 0
9 3 1 0.5564 1.8852920119403995 9.204726713858154 5.37616279287273 -1 2 0
198 66 1 0.5564 3.436800750664286 11.912936972228033 5.284613307044542 0 -1 0
232 78 2 -1.1128 4.74479574317172 10.091387893328967 2.855866749723804 -1 2 0
600 200 1 0.5564 7.430233050887508 12.304857038990868 2.4592250018155104 -2 -1 0
186 62 1 0.5564 0.6064242760299837 13.08296968824625 3.8224563033850294 5 0 0
401 134 1 0.5564 4.71977716455542 15.518986322934232 5.597026436833924 2 1 0
331 111 2 -1.1128 8.544597419242152 15.89060444504062 4.87067997861222 -2 0 0
80 27 1 0.5564 7.552555015912048 12.599300004512516 5.584288388142141 0 3 0
155 52 1 0.5564 7.951918808158837 10.473455567479544 5.167749088687988 1 1 0
512 171 1 0.5564 2.1431704370660523 15.813563027148428 4.5318140644162765 4 -1 0
400 134 2 -1.1128 4.758750047261244 16.470313825641202 5.695256424542373 2 1 0
332 111 1 0.5564 7.8255408790710845 16.10142453150583 4.275074735389283 -2 0 0
411 137 1 0.5564 1.106375382549253 14.898075112171977 2.6513235950252905 0 1 0
500 167 1 0.5564 5.791568161263635 16.94298077552465 4.275796594749375 -2 2 0
345 115 1 0.5564 3.3624278218420094 20.509063614319363 5.625103113347815 1 4 0
478 160 2 -1.1128 1.3266537030580832 20.80863573273392 2.528788329229584 1 -1 0
489 163 1 0.5564 7.508669404165533 24.875935504690847 5.42624037949616 2 1 0
405 135 1 0.5564 2.3685412293900137 19.01330136193305 2.610821943029535 2 1 0
250 84 2 -1.1128 0.5229635677819728 23.439412944971057 4.720519024929615 -1 -1 0
202 68 2 -1.1128 2.6329590797649716 24.32314989457021 3.2433175840589343 0 -3 0
368 123 1 0.5564 2.8361883558598535 21.49408876247324 2.713640631981883 0 -1 0
192 64 1 0.5564 6.440497324440468 19.929400379390785 3.020252807255578 3 -2 0
283 95 2 -1.1128 1.4866198919525593 20.742883912088786 5.234479517990003 1 -1 0
204 68 1 0.5564 3.1959135503564515 23.553827793535486 3.1569624220165573 0 -3 0
191 64 1 0.5564 5.26347891436957 19.70748035424132 3.9461439260453437 3 -2 0
252 84 1 0.5564 0.2010317912573012 24.22830700651849 5.156679303730358 -1 -1 0
284 95 1 0.5564 0.9413298495184917 21.5246298652863 5.322611028892804 1 -1 0
501 167 1 0.5564 5.824438453584167 17.643282062384838 2.934009406329587 -2 2 0
561 187 1 0.5564 5.391589072233559 22.24992083857622 5.210118040923322 -1 1 0
190 64 2 -1.1128 5.533721437664592 19.623040168855354 3.031776181567744 3 -2 0
55 19 2 -1.1128 5.090464984615405 25.618790391673677 4.324204752186578 2 -1 0
480 160 1 0.5564 1.4559444010028812 20.82051140120848 3.4770749170338706 1 -1 0
367 123 2 -1.1128 3.616758340582333 21.847195208837643 3.140556616008599 0 -1 0
479 160 1 0.5564 0.8136250335032319 21.59594599644492 2.346578460106565 1 -1 0
227 76 1 0.5564 0.7352786684317705 17.776112977493877 5.237714107179785 0 1 0
251 84 1 0.5564 1.2140220959573518 23.75282403814696 4.1370412152861284 -1 0 0
559 187 2 -1.1128 5.97386284505969 22.96870797448592 5.456093196016351 -1 1 0
344 115 1 0.5564 4.1171630795869 19.207009899921555 5.789194622863193 1 4 0
404 135 1 0.5564 3.8724319706426855 18.849442344661824 2.552873018354887 2 1 0
471 157 1 0.5564 8.214113144189078 21.156045693470055 3.6815257998638584 -4 0 0
560 187 1 0.5564 5.518901684008249 23.757678031584533 5.161590105401271 -1 1 0
403 135 2 -1.1128 3.076081617951336 18.422406337905823 2.86863195124047 2 1 0
343 115 2 -1.1128 4.23560246692603 20.1250584168104 5.545396417502943 1 4 0
469 157 2 -1.1128 8.089434006950937 20.644362897412563 2.882241914641555 -4 0 0
285 95 1 0.5564 0.88353857189671 20.012691429642825 5.373579509505814 1 -1 0
95 32 1 0.5564 7.682739636982722 22.45354527300558 5.1873551790602335 0 1 0
369 123 1 0.5564 4.256061228031937 21.13606493285342 3.09792589862406 0 -1 0
203 68 1 0.5564 3.168980639804466 24.961099412599044 3.7144177166842582 0 -3 0
129 43 1 0.5564 0.09355174064154709 19.46153492778353 2.42975312701134 1 0 0
487 163 2 -1.1128 8.102692674941041 25.510918491767505 5.026031266253062 2 1 0
470 157 1 0.5564 8.495995554315796 21.17116094868589 2.194176099399327 -4 0 0
473 158 1 0.5564 8.546960610172835 24.926848002282348 2.0184121011510436 2 -3 0
226 76 2 -1.1128 0.045255132525284125 18.434235367925627 5.321196855505881 0 1 0
513 171 1 0.5564 2.4013029246139346 17.23522273878715 4.079988121999231 4 -1 0
246 82 1 0.5564 0.8550937701161526 29.46720997231047 2.584282080860831 1 2 0
265 89 2 -1.1128 1.2304298309942727 28.486419833296964 5.356476783273729 2 2 0
569 190 1 0.5564 4.528988299514737 28.654687445640185 3.760360678293227 1 -3 0
281 94 1 0.5564 6.114304293917251 31.285388587536048 2.43745726891146 0 3 0
568 190 2 -1.1128 4.565427770899212 28.837798408029947 2.821557617850865 1 -3 0
217 73 2 -1.1128 4.936623254967908 28.25359151765204 5.309544082613006 -2 0 0
245 82 1 0.5564 1.9468847171668646 30.461433730273317 2.9180588167478048 1 2 0
464 155 1 0.5564 3.4003899259358374 32.30035708462643 2.6569110738119313 1 1 0
219 73 1 0.5564 5.620311489760237 28.914461638581653 5.199785901440478 -2 0 0
394 132 2 -1.1128 7.184977880626423 29.842509615920378 5.168109508604046 0 -2 0
100 34 2 -1.1128 2.9506742794129117 33.56550874368777 5.33865209065413 -1 1 0
463 155 2 -1.1128 2.4706230626591688 32.27179457959981 2.8826395044782607 1 1 0
334 112 2 -1.1128 8.059944721966227 31.029986241758536 2.4597873795455816 1 -1 0
148 50 2 -1.1128 0.32774720144627945 31.185573541543658 5.110332907864365 0 0 0
149 50 1 0.5564 0.4368639553464676 30.273308855489255 5.378852162300862 0 0 0
280 94 2 -1.1128 5.217103943087927 31.457653574547344 2.723116585778132 0 3 0
282 94 1 0.5564 4.794322084744718 30.59890267704709 2.7172415875855425 0 3 0
396 132 1 0.5564 6.819993050020842 30.724936240963974 5.102233093962749 0 -2 0
465 155 1 0.5564 2.432028161966112 32.59609645912027 3.78239271903496 2 1 0
570 190 1 0.5564 3.6561837927028087 29.00650582715571 2.574472266598981 1 -3 0
336 112 1 0.5564 8.244845214839925 30.09527196631786 2.368300850482522 1 -1 0
218 73 1 0.5564 4.329143589254389 28.639308136782102 5.940779315720806 -2 0 0
57 19 1 0.5564 5.606928210109997 25.942072747955194 3.5859710857951796 2 -1 0
266 89 1 0.5564 0.7017632982023747 27.712289111910316 5.162953797131438 2 2 0
101 34 1 0.5564 2.2428817244415926 33.1002250701235 5.784524150897598 -1 1 0
267 89 1 0.5564 1.7436376544896064 28.631427507436317 4.5616405059610745 2 2 0
395 132 1 0.5564 8.122719508609888 29.958631913623808 5.015189097542708 0 -2 0
167 56 1 0.5564 6.029814871933166 27.66689516440968 2.152722763030757 -3 -2 0
244 82 2 -1.1128 1.8010481686460182 29.538061300669426 2.7122997628662073 1 2 0
423 141 1 0.5564 0.8867892971072324 33.32636324723582 2.7290636295421353 0 0 0
625 209 2 -1.1128 5.8654168793888655 32.55751808309728 5.273479182248556 3 -2 0
627 209 1 0.5564 5.4986802740005105 32.37695936067167 4.407975412398768 3 -2 0
102 34 1 0.5564 3.7439501384034637 33.09140566980823 5.5880271305507785 -1 1 0
626 209 1 0.5564 6.045997831679059 33.49750241613736 5.266300517253 3 -2 0
56 19 1 0.5564 5.03380968059784 26.36411572568852 4.922126050148681 2 -1 0
506 169 1 0.5564 7.873149077231921 33.33463098197155 3.410459552351213 1 -2 0
505 169 2 -1.1128 7.745599037987705 34.20023617028577 3.0222722611357544 1 -2 0
168 56 1 0.5564 7.506619222120246 27.53742709785507 2.4596138593150614 -3 -2 0
166 56 2 -1.1128 6.706809029465235 27.021709774588796 2.3569528982514165 -3 -2 0
488 163 1 0.5564 7.632799186441384 26.34338167824639 5.075400353236695 2 1 0
421 141 2 -1.1128 0.050924258352721144 33.77197557668953 2.8668809616179964 0 0 0
161 54 1 0.5564 14.078305659511072 6.673568665042546 5.589575416298118 1 2 0
525 175 1 0.5564 9.959253340311884 2.3311167218169944 2.9494440877122092 2 1 0
566 189 1 0.5564 10.957680212295228 5.099122945877508 5.00404257481313 0 3 0
429 143 1 0.5564 13.125053853980027 2.5057958669214715 2.8723857576692975 0 1 0
556 186 2 -1.1128 8.761938351889869 2.6275273845118674 5.394896973223341 -1 3 0
288 96 1 0.5564 11.790218842511374 2.7182727237597795 6.4163027122170755 0 -1 0
362 121 1 0.5564 12.003879634018901 0.6919145766623671 2.897374619306985 4 1 0
31 11 2 -1.1128 9.307069685483201 4.089659803361902 2.914624857009234 0 -1 0
287 96 1 0.5564 10.568445267498989 2.850888504170342 5.5322339313776725 0 -1 0
565 189 2 -1.1128 11.279896410105268 5.986935138428129 4.848486354881467 0 3 0
567 189 1 0.5564 12.223030794020637 5.930253671224114 5.0018363335375176 0 3 0
532 178 2 -1.1128 15.784905011620072 3.7761350928015864 5.339245300308216 2 0 0
19 7 2 -1.1128 16.164146110270114 3.7804302761251583 2.65290435582328 0 -1 0
534 178 1 0.5564 15.116776018670347 4.454379277890247 5.24018064827281 2 0 0
276 92 1 0.5564 14.355909393795145 7.631741780680418 2.5727790056287008 -3 -1 0
162 54 1 0.5564 14.220466597223629 6.142411584248069 4.179058570479827 1 2 0
448 150 2 -1.1128 9.134731446381545 7.785757330675981 4.194324498153663 0 1 0
428 143 1 0.5564 13.022572963001062 3.4073351196708175 4.084252038828209 0 1 0
476 159 1 0.5564 14.089982731433494 1.321906380378768 4.08932050302864 -1 1 0
523 175 2 -1.1128 10.306088626240374 1.4453972218233804 3.0563937268886807 2 1 0
427 143 2 -1.1128 13.558221831209002 3.239277467061623 3.308963156800457 0 1 0
20 7 1 0.5564 15.998934604810014 4.720618977893779 2.7234553571677993 0 -1 0
160 54 2 -1.1128 14.04619888640621 5.864912606890155 5.078417731429889 1 2 0
286 96 2 -1.1128 11.518289787580116 2.9693179056167596 5.53345197431666 0 -1 0
21 7 1 0.5564 15.2929047004031 3.384452315392697 2.6335907026213574 0 -1 0
33 11 1 0.5564 9.954524130115828 4.699688339328604 2.5612072596809763 0 -1 0
215 72 1 0.5564 16.414080864781457 6.88720241362542 2.7277482850992825 3 -1 0
450 150 1 0.5564 9.854148489158195 7.234142001635001 4.501555308832515 0 1 0
275 92 1 0.5564 13.935288513476962 6.437240173993945 1.7432374527098526 -3 -1 0
477 159 1 0.5564 15.181171760220371 2.0052517546838304 4.885712979215943 -1 1 0
361 121 2 -1.1128 12.916972138652724 0.4202941546491261 2.804027802949103 4 1 0
524 175 1 0.5564 10.230350168149124 1.2696303555054624 3.9942638876846774 2 1 0
274 92 2 -1.1128 14.626726433091445 6.746795763854999 2.3284984871700436 -3 -1 0
475 159 2 -1.1128 14.886884606480775 1.1441323376185828 4.5888988106710915 -1 1 0
533 178 1 0.5564 16.14673923706297 3.6654175015414854 4.460045857621567 2 0 0
507 169 1 0.5564 8.631848200219531 0.1414166672009624 2.8889405741680827 1 -1 0
324 108 1 0.5564 16.559871936634327 0.040460603709085774 4.552735530241247 2 2 0
583 195 2 -1.1128 14.8499557109679 12.299886312590065 2.5104188006471895 2 1 0
134 45 1 0.5564 9.845917703568285 15.084889358032735 3.483035548228629 1 -3 0
115 39 2 -1.1128 12.318089771821665 17.048329204092525 3.072284507864339 0 0 0
85 29 2 -1.1128 14.974194197462904 15.766699358579816 5.167518296141355 0 -3 0
584 195 1 0.5564 14.431697493645459 13.07534305226834 2.136236557215329 2 1 0
156 52 1 0.5564 8.680784544436758 11.604552726446205 4.474013419335829 1 1 0
118 40 2 -1.1128 15.254475973144782 12.735853954536802 5.117576399643294 0 -1 0
339 113 1 0.5564 11.835045231396396 14.461382265752531 3.847026546746204 0 -2 0
603 201 1 0.5564 13.267320801084928 9.138243688366813 5.910679330384781 0 -2 0
117 39 1 0.5564 13.036797843524054 16.453445600189486 2.858265511877466 0 0 0
468 156 1 0.5564 16.38052429059266 10.73546829080677 5.391353086799719 1 3 0
86 29 1 0.5564 15.909147107114045 15.969896316273537 5.195918369081971 0 -3 0
601 201 2 -1.1128 13.916782054193295 8.651997596373993 5.402701107584284 0 -2 0
63 21 1 0.5564 11.53518827311566 12.466035933053965 4.958704762119352 1 -2 0
444 148 1 0.5564 10.28026523256685 8.970358110657944 3.1513703326758384 -4 1 0
585 195 1 0.5564 14.803851623826585 12.435385321453932 3.456785924204434 2 1 0
466 156 2 -1.1128 16.50789178738609 9.861958287324628 5.021229167167625 1 3 0
554 185 1 0.5564 14.72500630388529 15.296971337838915 3.5114128453922695 0 4 0
509 170 1 0.5564 14.005538694108841 10.412605572333065 2.6430568567327435 -3 2 0
242 81 1 0.5564 9.915273314493376 11.146769667214699 2.6660777469219754 -1 1 0
120 40 1 0.5564 14.576866835559844 13.411702574531036 5.100081385849015 0 -1 0
338 113 1 0.5564 12.359188789896889 14.964453157834892 5.175216458660892 0 -2 0
62 21 1 0.5564 10.365041768494013 11.597803909653969 5.369588614622757 1 -2 0
87 29 1 0.5564 14.54142816155358 16.604394154076058 5.332492941922468 0 -3 0
602 201 1 0.5564 13.759641263985483 8.9165154455157 4.496341148859827 0 -2 0
243 81 1 0.5564 9.82795612759863 12.653812126096346 2.551648699532164 -1 1 0
442 148 2 -1.1128 11.061992562788829 9.518265895712505 3.081146858635539 -4 1 0
337 113 2 -1.1128 12.10689840578661 14.163828222602927 4.715239446778217 0 -2 0
510 170 1 0.5564 12.773056971905095 9.534439055626015 2.6843803566342013 -3 2 0
135 45 1 0.5564 10.91932032092838 15.759814384679903 2.655884868205103 1 -3 0
241 81 2 -1.1128 9.288332961322602 11.86999402090808 2.6549685088275647 -1 1 0
553 185 2 -1.1128 14.479548452134539 15.298259241377421 2.586271897367712 0 4 0
61 21 2 -1.1128 11.28476335541886 11.554310254595704 5.107947220668373 1 -2 0
133 45 2 -1.1128 10.413609990987021 14.949990033798306 2.7242699419887955 1 -3 0
555 185 1 0.5564 15.183199060282655 15.780432312111532 2.151920254485 0 4 0
443 148 1 0.5564 11.177506926495898 9.885060754335315 3.9577026332680503 -4 1 0
467 156 1 0.5564 15.63814721167947 9.462843288853165 5.043219369923559 1 3 0
119 40 1 0.5564 16.055516992022458 13.205126711106582 5.350711272359195 0 -1 0
484 162 2 -1.1128 17.01831609353365 16.719296014544415 2.5299538265975974 2 -2 0
508 170 2 -1.1128 13.705031243063752 9.54163868504464 2.9025705027660003 -3 2 0
472 158 2 -1.1128 9.236982819823304 24.690859882744224 2.6384575189826305 2 -3 0
207 69 1 0.5564 16.37988365712941 22.66393498473964 3.4945250007789466 2 -4 0
315 105 1 0.5564 10.962413596819076 17.55827898222888 4.168187016190605 -2 -3 0
116 39 1 0.5564 12.531102895421968 17.85846819743411 2.609108280782877 0 0 0
408 136 1 0.5564 14.816228357448422 21.733562541965387 4.452057317334698 1 1 0
433 145 2 -1.1128 16.86240921894409 19.583350969340636 3.0019934631007463 -1 1 0
206 69 1 0.5564 15.024094921380929 23.104293774949607 2.9848032715647146 2 -4 0
459 153 1 0.5564 13.591505939780266 24.492661655332938 4.027491581592873 0 -2 0
94 32 2 -1.1128 8.610487079657752 22.407619491372934 4.956253866223506 0 1 0
538 180 2 -1.1128 14.737000219595878 18.62802854220349 5.013430444172104 2 -1 0
144 48 1 0.5564 12.434759754852143 20.81411330837331 5.5048334684812374 5 0 0
407 136 1 0.5564 14.6962187191034 20.523041399547626 5.35324070629436 1 1 0
434 145 1 0.5564 16.336527616295008 20.371501635846403 2.8659804471398704 -1 1 0
142 48 2 -1.1128 11.523417947074776 20.667233304724178 5.2516060039536345 5 0 0
483 161 1 0.5564 15.741305345865563 25.489506275253042 3.699491292088361 3 1 0
390 130 1 0.5564 12.024918623600056 23.197220716223164 4.645624501379778 -4 -1 0
406 136 2 -1.1128 14.467994565538811 21.4509749544123 5.297673425055029 1 1 0
457 153 2 -1.1128 14.034183874819766 24.816424581336925 3.242985820996811 0 -2 0
537 179 1 0.5564 11.734871608697844 25.221116914964007 5.797006865646554 -2 0 0
540 180 1 0.5564 15.64790890573144 18.547026218633203 4.730739165607067 2 -1 0
389 130 1 0.5564 13.303640787177084 22.963393980200156 5.421569064205449 -4 -1 0
257 86 1 0.5564 12.767412778005866 20.48513426555914 2.3613957969903825 -4 2 0
474 158 1 0.5564 8.831049529162966 24.792339311041818 3.499322666690692 2 -3 0
258 86 1 0.5564 12.328853700914822 19.94996437656548 3.707930012236707 -4 2 0
34 12 2 -1.1128 11.003671612691635 22.562897165963285 3.1400845078857667 5 0 0
539 180 1 0.5564 14.250797866168824 18.806048569089054 4.208356773880802 2 -1 0
256 86 2 -1.1128 12.942646245311291 19.78652241714065 2.991847829700946 -4 2 0
36 12 1 0.5564 10.324539084232686 23.21795117588831 2.979103909100744 5 0 0
205 69 2 -1.1128 15.591888775409469 22.33737759058644 3.0601796246660955 2 -4 0
35 12 1 0.5564 10.622741287556233 21.978319989409293 3.795366883600567 5 0 0
388 130 2 -1.1128 12.627870642820636 23.620904342534942 5.256482597675539 -4 -1 0
486 162 1 0.5564 17.03061539334641 17.676404011071718 2.524901991912827 2 -2 0
143 48 1 0.5564 11.35257268169599 19.7555824858076 5.488134683824416 5 0 0
458 153 1 0.5564 13.337355744238923 25.214470833500542 2.7212394918446323 0 -2 0
96 32 1 0.5564 9.019016881737846 21.952655117863028 5.692694050231337 0 1 0
313 105 2 -1.1128 10.618530315215752 18.14947436798036 4.837863106764306 -2 -3 0
314 105 1 0.5564 9.75990464733238 17.788549764179933 5.058604254302864 -2 -3 0
578 193 1 0.5564 10.715646637508803 25.76176108262758 2.727766482054767 -1 1 0
613 205 2 -1.1128 9.99499393198133 29.050810013480508 5.339082136827702 1 -2 0
363 121 1 0.5564 12.945407912325567 33.935732419465374 3.180569552775597 4 0 0
414 138 1 0.5564 16.472399923890226 28.59210476038862 3.2607519408919923 2 -1 0
180 60 1 0.5564 15.23349088201778 30.45696545903362 3.0340029404700326 0 -2 0
413 138 1 0.5564 16.44597313755163 27.81421160812919 1.9622608698793425 2 -1 0
68 23 1 0.5564 13.078660620389666 30.680951998057843 3.058035634243521 2 3 0
454 152 2 -1.1128 16.783129592643636 31.444036020172323 5.4266296604171504 1 2 0
392 131 1 0.5564 12.161003331365317 32.23709222146331 5.414750715538878 -1 0 0
69 23 1 0.5564 11.962089099694731 29.947449565463298 2.345899780730185 2 3 0
105 35 1 0.5564 12.83495270026231 28.052131180962355 5.845835708808619 0 1 0
179 60 1 0.5564 15.178094256511283 31.779437328605916 2.29922774025762 0 -2 0
577 193 2 -1.1128 11.427331455101298 26.400079860489196 2.7755924290851746 -1 1 0
615 205 1 0.5564 10.47383330444671 28.23175884143372 5.466000459776794 1 -2 0
158 53 1 0.5564 9.996368907445325 32.116296756718356 4.909499993758698 0 -4 0
356 119 1 0.5564 16.78889535604428 29.196201684944217 5.263471484295858 1 -2 0
393 131 1 0.5564 11.674687368999697 30.950247318180804 4.7827521411258065 -1 0 0
290 97 1 0.5564 14.554042755413066 32.280000276915956 4.891421990411182 4 -2 0
159 53 1 0.5564 8.789761874958655 32.83110437227568 5.4796270271479655 0 -4 0
104 35 1 0.5564 13.30563339209532 29.011171139395692 4.7731767446208435 0 1 0
614 205 1 0.5564 10.485391808160353 29.696742176746344 5.847557234845187 1 -2 0
357 119 1 0.5564 15.409829855725736 28.573233696565115 5.218924330962019 1 -2 0
391 131 2 -1.1128 11.466527493256127 31.580857758997613 5.472058198490088 -1 0 0
103 35 2 -1.1128 13.610384266906937 28.52023025629375 5.536195533104954 0 1 0
289 97 2 -1.1128 13.863055187471748 32.93183503424147 5.009230837708935 4 -2 0
67 23 2 -1.1128 12.20190447090666 30.321603381275143 3.1936771105461985 2 3 0
535 179 2 -1.1128 11.29461342260411 26.057817616893253 5.647392228845003 -2 0 0
606 202 1 0.5564 9.419003596617905 28.578871285879785 3.7496954426519857 -6 -1 0
355 119 2 -1.1128 16.309022055735564 28.443748522166025 4.917396862794611 1 -2 0
178 60 2 -1.1128 14.663095038059984 31.207616441753203 2.868471381770384 0 -2 0
291 97 1 0.5564 14.31239369863621 33.773827876231415 4.935920290851688 4 -2 0
604 202 2 -1.1128 9.143846382202069 28.182676696370745 2.9229301578139633 -6 -1 0
157 53 2 -1.1128 9.096525141006776 32.36708182862641 4.700648689114853 0 -4 0
605 202 1 0.5564 9.904260642767037 27.678356742590143 2.6336782524242714 -6 -1 0
412 138 2 -1.1128 16.563807340950987 28.696733904278954 2.3138759143972 2 -1 0
456 152 1 0.5564 16.883957372607696 32.20836778802001 4.859352618847739 1 2 0
579 193 1 0.5564 11.718847815221132 26.36669264590633 3.686693179588388 -1 1 0
482 161 1 0.5564 16.442219992993184 26.712823669287264 4.2509515464831615 3 1 0
335 112 1 0.5564 8.63969060967137 31.32163149858052 3.163306934515534 1 -1 0
322 108 2 -1.1128 17.139093600363417 33.99674610967205 3.9296269784718842 2 1 0
455 152 1 0.5564 16.905583357409377 31.7849763169118 6.31268230633512 1 2 0
536 179 1 0.5564 10.361440801701447 25.84748271323726 5.681902989249063 -2 0 0
481 161 2 -1.1128 16.58855593721609 25.93472005573245 3.7130162993419638 3 1 0
519 173 1 0.5564 23.728828775691504 1.3374887412732905 5.078751596806121 0 3 0
30 10 1 0.5564 21.42360205106691 1.479155428266589 4.0717138485180335 -2 1 0
28 10 2 -1.1128 21.4634772875122 1.1722611750588887 4.97750355540597 -2 1 0
518 173 1 0.5564 25.140726795083857 1.8765986198729239 4.99043551933418 0 3 0
170 57 1 0.5564 18.79079991901447 7.034471525163521 5.382491462061893 -3 0 0
52 18 2 -1.1128 20.3944572390331 6.117232061154689 2.7504946439051063 1 3 0
64 22 2 -1.1128 24.747113019093334 6.598020736048113 2.6892175228235113 -1 0 0
517 173 2 -1.1128 24.276765406340225 1.9471264728526592 4.584447648042424 0 3 0
54 18 1 0.5564 19.517517289542674 5.858601653856713 2.467070602997837 1 3 0
216 72 1 0.5564 17.716754910880642 7.5244857345256095 3.1622658539283774 3 -1 0
181 61 2 -1.1128 20.919793501359578 1.7724002540044907 2.487896714505336 -3 2 0
504 168 1 0.5564 23.189924663447083 4.215778201847245 2.1510970235699687 1 -2 0
352 118 2 -1.1128 24.73170569381873 6.56117968279111 5.628757112894455 -4 2 0
546 182 1 0.5564 20.773880797671197 3.749693485579106 5.4154757870962875 3 -3 0
182 61 1 0.5564 20.00074635371353 1.9969408903272203 2.342330150726549 -3 2 0
169 57 2 -1.1128 19.07919705579278 7.9446321087971885 5.45074182433894 -3 0 0
47 16 1 0.5564 21.329049417062883 5.824808847951576 4.809661882515061 -2 1 0
29 10 1 0.5564 20.716375120689925 1.5903130818005267 5.40564388417926 -2 1 0
74 25 1 0.5564 18.45370836661944 2.3927107298049943 3.8570453737986963 0 -1 0
65 22 1 0.5564 24.551089617775375 6.455175508541227 3.61514877863227 -1 0 0
53 18 1 0.5564 20.41262899280414 7.0675725695493945 2.637539576909757 1 3 0
49 17 2 -1.1128 25.300831815454302 3.6452292161651316 2.604539767327268 -3 -3 0
48 16 1 0.5564 22.339705281876608 4.791199569814579 4.360082199474731 -2 1 0
545 182 1 0.5564 19.404491650117606 4.0978341123293545 5.959044520540911 3 -3 0
73 25 2 -1.1128 18.100769961471865 2.019037052338161 3.049559747292836 0 -1 0
46 16 2 -1.1128 22.006493327976518 5.234796792250252 5.140087981274172 -2 1 0
544 182 2 -1.1128 19.919597684076315 3.3674684304127056 5.616178857319006 3 -3 0
502 168 2 -1.1128 22.37996617649222 4.162204107091609 2.658406016304918 1 -2 0
503 168 1 0.5564 21.94640221224191 5.002168380699006 2.5076606528696903 1 -2 0
353 118 1 0.5564 23.89787816805727 6.147733148836358 5.852570508160601 -4 2 0
66 22 1 0.5564 25.269520179308454 5.837499914642584 2.4343737582740723 -1 0 0
183 61 1 0.5564 21.378788339061593 2.6120101653073293 2.463099895405826 -3 2 0
609 203 1 0.5564 17.631878364690937 5.755480541048959 4.643758119778641 2 1 0
51 17 1 0.5564 24.610555760628223 3.1575935959697694 3.0538974933054135 -3 -3 0
75 25 1 0.5564 17.399097863215633 2.618084691429672 2.7945490299037705 0 -1 0
607 203 2 -1.1128 18.174419249648963 5.434542732454666 5.364054628924529 2 1 0
354 118 1 0.5564 25.334491108046524 5.829498078103039 5.496529850415912 -4 2 0
269 90 1 0.5564 24.062915737784103 0.5673015741641638 3.127790376578346 -2 0 0
171 57 1 0.5564 18.37186557132275 8.385846563414164 5.921170188183656 -3 0 0
323 108 1 0.5564 17.520489688329906 0.31288899917651986 3.414802528374041 2 2 0
608 203 1 0.5564 17.59847181223153 4.849303194816315 5.856037749037117 2 1 0
214 72 2 -1.1128 17.301634315662046 6.674440960553079 3.0162170709271967 3 -1 0
611 204 1 0.5564 23.15418392217724 7.954526712472313 2.6804449321261767 0 -1 0
106 36 2 -1.1128 20.860638994110637 12.51246132084192 5.436874606321985 0 -1 0
436 146 2 -1.1128 17.98422163343449 13.665207656370173 5.167488082109378 2 -1 0
493 165 2 -1.1128 20.39197137296512 14.953569089098428 3.269880029957051 0 1 0
347 116 1 0.5564 23.1034883258139 10.99565127643056 2.588721101793314 2 -1 0
346 116 2 -1.1128 23.324954090107912 11.926199607369039 2.553218787507242 2 -1 0
495 165 1 0.5564 20.329606206760083 14.007359142938688 3.4003783962374343 0 1 0
430 144 2 -1.1128 18.04751283055109 12.411611727329912 2.6536590286598463 4 2 0
300 100 1 0.5564 20.30195334110841 16.848709000476802 3.7047948160775652 -1 2 0
527 176 1 0.5564 23.373081407539352 13.039031913602239 4.196977606861676 0 -2 0
494 165 1 0.5564 20.040568398850436 15.098345113648415 2.391368014531671 0 1 0
108 36 1 0.5564 21.735343123765606 12.839931412629191 5.646425101792696 0 -1 0
342 114 1 0.5564 21.94993281825053 17.111983037407512 4.282376187171855 3 1 0
341 114 1 0.5564 22.121781552188768 15.76111751876214 3.6209190109199154 3 1 0
110 37 1 0.5564 24.79902698297879 14.78685784446098 5.293803822398024 -2 -3 0
111 37 1 0.5564 24.667266262925725 16.282325852097525 5.098586318402495 -2 -3 0
438 146 1 0.5564 18.87900425397097 13.517641158835927 5.4737995708256255 2 -1 0
340 114 2 -1.1128 22.617802058120123 16.490405954716586 3.9928515898717505 3 1 0
437 146 1 0.5564 17.912172420569924 13.136094254744364 4.373093724496957 2 -1 0
526 176 2 -1.1128 23.635508135110538 13.191752582086973 5.104737272513432 0 -2 0
426 142 1 0.5564 25.221419896265022 10.582149805962537 4.8308809135399775 0 -1 0
107 36 1 0.5564 21.009075997683038 11.627265583088708 5.104324652797813 0 -1 0
124 42 2 -1.1128 17.91015607960251 9.198175591596016 2.897364954267748 -2 1 0
348 116 1 0.5564 23.05770455564682 12.203171943563303 1.676749098965731 2 -1 0
383 128 1 0.5564 25.37693904545055 11.957946874806666 2.2730817862683046 0 0 0
528 176 1 0.5564 24.469346128018334 12.730328195214785 5.194374655259136 0 -2 0
431 144 1 0.5564 18.088835042094754 11.520379160544303 2.3068843853921317 4 2 0
278 93 1 0.5564 20.392668605777068 9.029859194898075 4.533030322572021 -1 1 0
610 204 2 -1.1128 23.05244149499292 8.889227296365576 2.8599404158568533 0 -1 0
126 42 1 0.5564 18.80224788070842 9.516216064615802 3.0361179133153673 -2 1 0
109 37 2 -1.1128 25.309404392593976 15.57247428880974 5.097446555097488 -2 -3 0
125 42 1 0.5564 17.459919584276065 9.378768981353963 3.7225276006521137 -2 1 0
277 93 2 -1.1128 20.685784296440353 9.760138301727714 3.9880463257144982 0 1 0
612 204 1 0.5564 23.875946208574913 9.144819562841093 3.2755562681082453 0 -1 0
452 151 1 0.5564 18.60805837621645 16.715147222218707 5.106598516738963 -4 1 0
279 93 1 0.5564 21.570994184565862 9.517029981087365 3.7168755022121323 0 1 0
424 142 2 -1.1128 25.242684360043718 9.6779429800279 4.517531237430091 0 -1 0
451 151 2 -1.1128 17.71150646390483 16.380000448517407 5.11674735766407 -4 1 0
485 162 1 0.5564 17.318957119178073 16.479990187158226 3.406575547281793 2 -2 0
453 151 1 0.5564 17.811307105909464 15.428270893344157 5.138722457942409 -4 1 0
432 144 1 0.5564 17.21157425079669 12.753833085639204 2.336886459173059 4 2 0
563 188 1 0.5564 24.52169775256171 22.764609973269184 2.18733912908786 -2 -6 0
359 120 1 0.5564 22.774105911973663 21.25709158411781 2.466781603954834 -2 -1 0
360 120 1 0.5564 22.07398951005146 20.734696000604202 3.703242323667227 -2 -1 0
176 59 1 0.5564 25.449915557371682 19.268707067634637 4.435036496659074 -1 -1 0
351 117 1 0.5564 23.32495272901357 21.66567992701715 5.279336188930666 -2 2 0
71 24 1 0.5564 18.52057606423013 23.38164843887325 3.6594308908834856 -2 3 0
235 79 2 -1.1128 25.53215349309385 24.338987922970556 5.544846435911408 3 -4 0
415 139 2 -1.1128 21.638366229796098 21.66931992695815 5.512089679949157 -2 -1 0
23 8 1 0.5564 23.110343062510143 25.425873600689698 6.046627736898317 1 1 0
10 4 2 -1.1128 19.727707260978697 20.136596173563227 2.810241738998386 0 -4 0
97 33 2 -1.1128 24.518206189300127 18.590718680578593 3.064236629930343 1 0 0
564 188 1 0.5564 23.75178577988438 22.714594207462643 3.4898863386017003 -2 -6 0
11 4 1 0.5564 20.669853313391528 20.019141059975407 2.688585446180463 0 -4 0
72 24 1 0.5564 17.418103229991594 24.2607775993434 4.2104126109008035 -2 3 0
349 117 2 -1.1128 24.208628545230138 21.942589667445517 5.037113937248896 -2 2 0
596 199 1 0.5564 18.585124034279648 21.960478732867102 5.078207414454242 0 -1 0
562 188 2 -1.1128 23.648958068559452 22.899942389561467 2.5565084027394405 -2 -6 0
39 13 1 0.5564 21.00567525210445 24.42839969967853 4.041367950992858 0 0 0
435 145 1 0.5564 17.765206059015295 19.87072925694804 2.8655966812862106 -1 1 0
597 199 1 0.5564 18.35230966749814 20.702853964340648 5.888190524220233 0 -1 0
416 139 1 0.5564 21.533291857827898 22.493280560693524 5.036478731353247 -2 -1 0
38 13 1 0.5564 21.82286505053662 23.668010966382834 3.018672865114602 0 0 0
358 120 2 -1.1128 22.341273982151215 20.479900258774745 2.8201523815148857 -2 -1 0
99 33 1 0.5564 24.191709804133588 17.851523217517915 3.577287919559866 1 0 0
417 139 1 0.5564 20.75378938237739 21.44405806403435 5.800287124188412 -2 -1 0
22 8 2 -1.1128 22.39342730359975 25.59712798674872 5.4358877448438125 1 1 0
70 24 2 -1.1128 17.785208852177792 23.37893277406082 4.272180146798714 -2 3 0
37 13 2 -1.1128 21.043933218075217 23.59600542244604 3.5703155994508613 0 0 0
350 117 1 0.5564 24.419874044805237 22.640473972565367 5.657250314618252 -2 2 0
299 100 1 0.5564 19.907361395614874 18.31023792959052 3.6935852680543597 -1 2 0
595 199 2 -1.1128 18.949089095155266 21.091765201208197 5.248769414576683 0 -1 0
12 4 1 0.5564 19.645656666649113 20.53855200082175 3.675058320402494 0 -4 0
98 33 1 0.5564 23.761817541961555 19.169565235730612 2.969132423688454 1 0 0
237 79 1 0.5564 25.600138599761777 25.217219744549226 5.170350139146844 3 -4 0
177 59 1 0.5564 25.258613915891278 20.529615523847653 5.250762402381793 -1 -1 0
298 100 2 -1.1128 20.177103809196925 17.603488253173055 4.280081451475997 -1 2 0
548 183 1 0.5564 23.496552939474466 27.45627247534866 2.3661442337731606 1 -2 0
328 110 2 -1.1128 24.512047038056444 32.82102643942554 5.223853769304475 -2 2 0
136 46 2 -1.1128 21.87934279141629 28.299597304136153 5.563866837361421 -1 1 0
138 46 1 0.5564 22.319970641059868 29.080727155566485 5.898511954799804 -1 1 0
83 28 1 0.5564 19.032727022108293 33.3180340062094 4.4641015620498745 -3 -1 0
189 63 1 0.5564 24.115238776434992 30.003713775684066 4.416185866984874 -4 2 0
397 133 2 -1.1128 23.34441347993539 30.405919447503937 2.7303132427662358 2 -2 0
398 133 1 0.5564 22.754151080479375 29.6524317723424 2.739149884151174 2 -2 0
84 28 1 0.5564 20.323885316610287 33.73058513854556 5.138347101274427 -3 -1 0
270 90 1 0.5564 23.49293293051456 33.77228037976349 2.385588011128178 -2 -1 0
492 164 1 0.5564 22.024318596952075 28.111200555350802 3.7337300775103333 0 -1 0
137 46 1 0.5564 20.946769426132324 28.508477856577706 5.617897699820588 -2 1 0
490 164 2 -1.1128 21.858353643275482 28.177974335812195 2.7934105379070995 0 -1 0
187 63 2 -1.1128 24.548645466605546 29.98550199298896 5.269427753128257 -4 2 0
261 87 1 0.5564 21.40663739017551 32.725216288264235 3.212953322279713 -2 -2 0
24 8 1 0.5564 22.131215575921463 26.499018655810495 5.620524145785307 1 1 0
622 208 2 -1.1128 19.096962836891883 27.978871307916723 2.771759962274687 -1 -1 0
547 183 2 -1.1128 24.243418043058092 26.926941870309534 2.6458816473796816 1 -2 0
330 110 1 0.5564 24.53413451193135 33.080261609589435 4.30270795415446 -2 2 0
588 196 1 0.5564 25.584462455557606 27.781636463493307 5.209165319911036 0 0 0
549 183 1 0.5564 23.954124139569586 26.022220055595415 2.527443510967438 1 -2 0
491 164 1 0.5564 20.909768961903186 28.285810032528893 2.724182711427174 0 -1 0
221 74 1 0.5564 19.174667464220757 28.922241722093617 4.5210968428456155 1 4 0
82 28 2 -1.1128 19.94340159207632 33.04892429910783 4.584452303551891 -3 -1 0
268 90 2 -1.1128 24.31967125164733 34.19951779259593 2.6096930243419574 -2 -1 0
260 87 1 0.5564 21.37532893134851 33.78495961440133 2.1322780401134445 -2 -2 0
220 74 2 -1.1128 19.442239628058793 29.3380077678771 5.340682527182996 1 4 0
222 74 1 0.5564 19.47344941646374 30.272685215200386 5.136667262057541 1 4 0
259 87 2 -1.1128 21.848789009680207 33.00076365940631 2.410076153283289 -2 -2 0
623 208 1 0.5564 18.660152307543328 27.13219094577683 2.864266283031721 -1 -1 0
399 133 1 0.5564 22.77042264518472 31.158777228210678 2.588970400370952 2 -2 0
624 208 1 0.5564 18.412357137704586 28.568929998640414 2.4564996008438675 -1 -1 0
188 63 1 0.5564 24.509699050242503 30.89084729155013 5.577775471894539 -4 2 0
587 196 1 0.5564 25.492335794741177 26.92270157057473 3.965928120988162 -1 0 0
329 110 1 0.5564 25.336696413954737 33.14663544013431 5.584653409717568 -2 2 0
15 5 1 0.5564 25.18163314735755 30.71374991785842 2.570299694755687 -4 0 0
60 20 1 0.5564 30.25250633440524 0.897304070029909 2.551241054338558 1 -3 0
6 2 1 0.5564 31.246669008137186 6.069099138339376 2.392107242082304 3 -1 0
239 80 1 0.5564 31.870751175991682 2.1156372247740096 5.546731319546069 2 1 0
378 126 1 0.5564 27.132624954458375 1.985030063631448 2.4459468568539164 -2 2 0
43 15 2 -1.1128 28.6026444287556 4.8650731064653545 2.8661598515722573 1 3 0
580 194 2 -1.1128 30.6750367921216 0.4554798230652775 5.3062648198192415 0 -1 0
529 177 2 -1.1128 31.4550179039051 2.3231415778200617 2.476226086516024 -1 0 0
45 15 1 0.5564 29.51507938835178 5.022616535881603 2.6235106757526445 1 3 0
377 126 1 0.5564 28.30705746602325 2.844144858249539 2.863709045054994 -2 2 0
44 15 1 0.5564 28.14364001936639 5.663487021472132 2.605225716891573 1 3 0
387 129 1 0.5564 27.476520950622522 7.7661752523152305 4.429268945582016 -2 -1 0
376 126 2 -1.1128 27.86186777273476 2.0210121268328067 3.064931918537605 -2 2 0
238 80 2 -1.1128 32.62337333484168 2.676761613637346 5.35979548979225 2 1 0
439 147 2 -1.1128 30.841449270552673 7.67930762791077 2.7105699959282847 -2 0 0
531 177 1 0.5564 31.45335898882385 3.1919683515577235 2.074431622634552 -1 0 0
629 210 1 0.5564 26.578154179808493 3.687319004763885 5.519379881747635 2 0 0
530 177 1 0.5564 32.3820365851108 2.1095121540011337 2.5821142975383347 -1 0 0
141 47 1 0.5564 28.07765870081217 8.257814177521606 2.540340868719837 0 1 0
296 99 1 0.5564 27.23403889948744 0.8116336460253984 5.605266124404546 0 0 0
255 85 1 0.5564 31.006356222215473 5.302218004856406 5.618848949357552 -1 0 0
253 85 2 -1.1128 31.882192490421936 5.177458493208361 5.253346412735734 -1 0 0
240 80 1 0.5564 32.321059804345815 3.5608632681910803 5.5676850292742905 2 1 0
4 2 2 -1.1128 31.329717116264092 5.118158890224736 2.463245257214153 3 -1 0
590 197 1 0.5564 33.81500346598679 2.3939586352138638 4.116222087852876 1 4 0
386 129 1 0.5564 26.27696700018192 7.602868035460983 5.33827734987705 -2 -1 0
630 210 1 0.5564 27.346633093185478 4.972039876520592 5.293929991498343 2 0 0
5 2 1 0.5564 31.516129289323803 4.962039425847379 3.3889548457898275 3 -1 0
297 99 1 0.5564 27.34048192115826 2.0012808679645984 4.675048631942404 0 0 0
152 51 1 0.5564 34.25659690459045 5.354135480760208 3.640402965019621 0 1 0
374 125 1 0.5564 28.91333474786615 6.5916249307317205 5.228431704060559 0 1 0
375 125 1 0.5564 28.960491283313154 5.264221820031432 4.502020968006001 0 1 0
373 125 2 -1.1128 29.147649910178057 5.671269057864834 5.347867801436897 0 1 0
254 85 1 0.5564 32.29705681600718 6.037053666277003 5.32558504096454 -1 0 0
139 47 2 -1.1128 27.66326974042326 7.416561647578558 2.7322165998197003 0 0 0
295 99 2 -1.1128 26.94081697224895 1.7163392166007747 5.496744307894931 0 0 0
92 31 1 0.5564 33.40861076783005 7.905377640813623 4.21479651522288 -1 1 0
440 147 1 0.5564 31.599387974805566 8.198194437293234 2.4412548528103146 -2 0 0
628 210 2 -1.1128 26.587062214481218 4.479767899514986 4.982556897349005 2 0 0
385 129 2 -1.1128 27.16565911940083 7.957655002048049 5.314074487560015 -2 -1 0
140 47 1 0.5564 26.738251775945756 7.5523327628597565 2.5269146669109377 0 0 0
91 31 2 -1.1128 33.275270786292076 7.830977850903166 5.1597289268790805 -1 1 0
59 20 1 0.5564 28.940917001741777 0.15944617702952504 2.716148166837829 1 -3 0
582 194 1 0.5564 30.451914078372 0.14012026690668322 4.430508661329743 0 -1 0
58 20 2 -1.1128 29.889207878826422 0.02982448698459766 2.729378593105229 1 -3 0
581 194 1 0.5564 29.876934046894256 0.3258488530085307 5.818600246247392 0 -1 0
589 197 2 -1.1128 34.273662488817344 2.280917414153661 3.283702062370761 1 4 0
441 147 1 0.5564 30.217727740431737 8.322508681173263 3.0474365426420618 -2 0 0
93 31 1 0.5564 32.7375559887177 8.589650952888343 5.386696994944193 -1 1 0
379 127 2 -1.1128 33.81823170645646 8.39845227176566 2.478743285013724 0 0 0
50 17 1 0.5564 25.961218745164146 3.803247190910381 3.279144345857745 -3 -3 0
384 128 1 0.5564 26.428406612115253 13.046168192336518 2.3187493641184753 0 0 0
309 103 1 0.5564 31.956726539046244 11.202284273878025 4.778881514272086 -1 3 0
164 55 1 0.5564 30.56601589176439 13.587640974851936 2.497212222491453 2 2 0
147 49 1 0.5564 31.69552041027482 15.911364096970978 2.0044857017380835 -2 -6 0
223 75 2 -1.1128 26.16120158079592 14.825078122255523 2.410145102821186 -2 -2 0
619 207 2 -1.1128 25.9404573823437 12.302252971368025 5.24573059294309 1 -1 0
163 55 2 -1.1128 30.13029018006137 12.789771822645822 2.7968585636516408 2 2 0
113 38 1 0.5564 33.732269051050714 17.031043081107214 2.394257891818597 0 3 0
303 101 1 0.5564 29.017645186080372 10.397740292791847 2.353939983049239 0 1 0
514 172 2 -1.1128 28.523353054735843 13.984837953486892 4.824971438223426 5 0 0
273 91 1 0.5564 32.26646826270749 13.933801290426809 4.857233261481639 -2 0 0
165 55 1 0.5564 30.522299080474586 12.608583132333266 3.6510882473486808 2 2 0
225 75 1 0.5564 26.342104428877 15.575138393701366 1.8435300036580067 -2 -2 0
382 128 2 -1.1128 26.290551844197687 12.1183218940118 2.5094217734196644 0 0 0
146 49 1 0.5564 30.86074230921627 16.164892068876746 3.2417263014763313 -2 -6 0
145 49 2 -1.1128 30.919708171451322 15.60035086912952 2.471069291176402 -2 -6 0
307 103 2 -1.1128 31.61205655156047 10.31106303062155 4.835089392379752 -1 3 0
372 124 1 0.5564 32.310607805689116 10.8612983140944 3.1152747917984818 0 1 0
301 101 2 -1.1128 29.002132448201856 9.715046198184593 3.024702357398719 0 1 0
370 124 2 -1.1128 32.75281751041676 11.44443284406655 2.4983948677725314 0 1 0
114 38 1 0.5564 33.289820264850334 15.89588768849821 3.292899395111759 0 3 0
321 107 1 0.5564 31.93122427594273 16.24451305248764 5.011590057598048 3 3 0
621 207 1 0.5564 26.042414607343666 12.425582995440374 4.302019450114598 1 -1 0
516 172 1 0.5564 28.078974301305337 14.798325776840644 4.586229522654866 5 0 0
112 38 2 -1.1128 33.71691098080205 16.075920986093195 2.455488803604775 0 3 0
308 103 1 0.5564 30.710394632464503 10.42105636757341 5.136980587886743 -1 3 0
271 91 2 -1.1128 31.703332783247873 13.192009807794241 5.078260911199407 -2 0 0
209 70 1 0.5564 27.739084319530555 11.504578391589337 5.239728664899642 -1 2 0
515 172 1 0.5564 28.996603155506033 13.728655602408368 4.033365876119864 5 0 0
185 62 1 0.5564 34.07585615591009 11.906138484427396 3.598208296204422 4 0 0
302 101 1 0.5564 28.543300235802313 10.114881480247425 3.7635083632299247 0 1 0
620 207 1 0.5564 26.631283469485915 12.839171499069744 5.633962862853736 1 -1 0
208 70 2 -1.1128 28.393314693480733 10.8222859185924 5.390322599348387 -1 2 0
371 124 1 0.5564 32.044182405326985 11.934324365248944 2.0810949839726005 0 1 0
320 107 1 0.5564 33.297155792639835 16.738254822974604 5.438609258875136 3 3 0
319 107 2 -1.1128 32.85916834724083 16.010062597179573 4.997999592742781 3 3 0
425 142 1 0.5564 26.11682918685798 9.36417642065576 4.7491602446269825 0 -1 0
210 70 1 0.5564 28.140436528812764 10.427357642523843 6.224821079994273 -1 2 0
380 127 1 0.5564 34.077885030150014 9.28414671770004 2.2249714217127634 0 0 0
272 91 1 0.5564 31.27428168751968 13.451047037607188 5.893770466888547 -2 0 0
41 14 1 0.5564 26.93175866921201 16.6940052520155 5.776145084549558 3 0 0
224 75 1 0.5564 26.033021326995044 15.205891067781428 3.278806740310584 -2 -2 0
128 43 1 0.5564 33.064109189105615 19.339157113607584 2.927630910474532 0 0 0
364 122 2 -1.1128 29.49332576353625 24.000376190882793 3.4789521782834316 -3 0 0
16 6 2 -1.1128 27.644886743819423 20.790918786846465 3.639121759793737 -3 -2 0
571 191 2 -1.1128 26.750728745000973 23.338512020614523 3.024565250259963 -1 -1 0
325 109 2 -1.1128 29.964601009660083 21.79289416466619 5.014739684695102 -2 -3 0
365 122 1 0.5564 29.819926085683182 23.356349306020945 4.107280779207938 -3 0 0
17 6 1 0.5564 26.874830729144147 20.81770534902848 4.207039440011938 -3 -2 0
327 109 1 0.5564 29.291352181510764 21.272603252541124 4.5762618108870186 -2 -3 0
201 67 1 0.5564 32.38108201785102 21.456438587727455 3.100846088605322 -1 2 0
123 41 1 0.5564 28.841353135199384 19.7084476423385 2.9198713001734804 0 -2 0
18 6 1 0.5564 27.6118923062353 21.61369757873887 3.1510887732667427 -3 -2 0
121 41 2 -1.1128 29.505952863358434 19.039634157497794 2.754882898903447 0 -2 0
592 198 2 -1.1128 28.312452847015354 25.752995165108484 5.254707878917042 -4 2 0
200 67 1 0.5564 31.2212821797598 20.505799947806796 2.8933713496631177 -1 2 0
127 43 2 -1.1128 33.84270052949832 18.82015816397752 2.7259923285339958 0 0 0
236 79 1 0.5564 26.194894097352943 24.32059884532193 6.2353534701666895 3 -4 0
573 191 1 0.5564 27.638977395866196 23.69520966735793 3.0209574777855606 -1 -1 0
572 191 1 0.5564 26.34508282152662 23.712552275798522 3.8067254246518156 -1 -1 0
90 30 1 0.5564 27.239803692418295 17.339660912514837 3.217065151417534 2 -1 0
42 14 1 0.5564 27.08964641904869 18.077224615532273 5.181442750301491 3 0 0
25 9 2 -1.1128 33.51412323572708 22.775948270438697 2.6016491098217136 -2 -2 0
366 122 1 0.5564 29.04674137075188 24.654726300757837 4.016188668011733 -3 0 0
418 140 2 -1.1128 31.905362479783868 25.021504103763824 2.77980311869769 -1 1 0
199 67 2 -1.1128 32.013338715441485 20.63084007722778 3.4160953468700352 -1 2 0
26 9 1 0.5564 33.22858715302257 23.6248710078908 2.2639168757049846 -2 -2 0
122 41 1 0.5564 29.103186798493518 18.454148720723143 2.113600494415902 0 -2 0
326 109 1 0.5564 30.78156518917982 21.326651402115672 4.837488192576959 -2 -3 0
228 76 1 0.5564 34.14252858237376 18.584967581338766 4.424080720792177 -1 1 0
27 9 1 0.5564 33.99349505362103 22.985445524902104 3.4031912821494728 -2 -2 0
460 154 2 -1.1128 30.499955975443395 17.364170358028264 4.588364819560075 -1 2 0
40 14 2 -1.1128 27.552437995727832 17.248203270189446 5.302987874539046 3 0 0
461 154 1 0.5564 30.21296639020815 18.025463032780085 3.9586312625754227 -1 2 0
175 59 2 -1.1128 25.804037350124805 19.745718778243354 5.185549650180799 -1 -1 0
89 30 1 0.5564 26.362930800549805 18.172608253270546 2.3064675310837632 2 -1 0
88 30 2 -1.1128 27.00745079652572 17.46498121921375 2.2971977557446617 2 -1 0
420 140 1 0.5564 31.075404143788447 24.671225368794232 3.103368833813625 -1 1 0
462 154 1 0.5564 29.767529756261165 17.280333506350072 5.198898748990895 -1 2 0
586 196 2 -1.1128 25.920989402544212 26.974353705601683 4.8202248200548095 -1 0 0
174 58 1 0.5564 33.358379027561014 33.33927968274213 4.90837543448228 -3 -1 0
318 106 1 0.5564 30.84209648285233 27.94921654271292 3.4146468185837295 -2 0 0
262 88 2 -1.1128 27.55522438406605 33.19826455788504 5.571060897966268 -1 0 0
263 88 1 0.5564 27.479098620626363 33.214845612897015 4.617148887071743 -1 0 0
496 166 2 -1.1128 27.54977032145029 29.98988891728371 4.897933158779444 1 1 0
618 206 1 0.5564 30.73581942308782 32.568636422328815 2.215908721999619 1 0 0
248 83 1 0.5564 30.07280130424447 28.878795629319978 5.450677724266621 3 0 0
13 5 2 -1.1128 26.12880586361803 30.80217745214628 2.6765194308290092 -4 0 0
316 106 2 -1.1128 31.69667256783781 27.66615009685825 3.0893699826300836 -2 0 0
419 140 1 0.5564 31.75107174611376 25.962133503398825 2.692364363563744 -1 1 0
497 166 1 0.5564 27.045651232539683 30.17658533717635 4.105947713144339 1 1 0
172 58 2 -1.1128 32.693575698418755 33.088504323467845 5.5496645375334195 -3 -1 0
14 5 1 0.5564 26.491786924614154 30.52027377193383 1.8368426221478724 -4 0 0
212 71 1 0.5564 26.81060167924161 32.42913318512477 2.9210046821960116 -2 0 0
249 83 1 0.5564 28.857039222666568 28.583328074546316 4.598318239009827 3 0 0
617 206 1 0.5564 30.735713738870647 31.829179964511873 3.536930816001264 1 0 0
498 166 1 0.5564 26.89315997034745 29.73338420903665 5.545466513667795 1 1 0
229 77 2 -1.1128 33.75414429784667 26.196611386789584 5.280329666517189 1 -2 0
616 206 2 -1.1128 31.034361575598332 31.75903824153857 2.6302611077479905 1 0 0
594 198 1 0.5564 28.97057421751941 26.44138254596586 5.350805721172192 -4 2 0
150 50 1 0.5564 33.92542963034595 31.472960217830035 5.555228596721275 -1 0 0
247 83 2 -1.1128 29.646217255033076 28.17796257243203 4.9576341682071865 3 0 0
317 106 1 0.5564 32.249433231432896 28.444600092962915 3.1579493017853437 -2 0 0
422 141 1 0.5564 33.91263345410452 33.52032944367171 2.1128781162871615 -1 0 0
293 98 1 0.5564 33.671060929921076 30.49493139772004 3.7766719250757923 -2 0 0
294 98 1 0.5564 32.42144270499989 30.710706776865 2.9497556564209684 -2 0 0
292 98 2 -1.1128 33.097086934737106 30.061423269278198 3.145119933454279 -2 0 0
264 88 1 0.5564 27.63712735758094 32.26985211163056 5.789287698697979 0 0 0
593 198 1 0.5564 27.500415510450885 26.2223168963774 5.063509991445671 -4 2 0
211 71 2 -1.1128 26.952210775314033 33.37570769671244 2.907765876039875 -2 0 0
230 77 1 0.5564 32.938500815573065 26.412416194989298 5.732443480929269 1 -2 0
231 77 1 0.5564 33.48475870605467 25.98781490352356 4.385888131135173 1 -2 0
173 58 1 0.5564 32.07166924585909 33.81614463909626 5.547807176600646 -3 -1 0
213 71 1 0.5564 26.082383717399342 33.74643158550082 2.758774217771886 -2 0 0

Velocities

76 -0.0044780536708075485 -0.001354344874062152 0.004787098434687099
520 0.0012732713373236615 -0.0029320810954737366 0.003107231450970465
312 0.0023990712503403474 -0.0002317124794370737 -0.013234797316475743
521 -0.013604141504062708 0.004832900072669536 -0.01931370400033963
591 0.001393657430242107 0.0025634754808267655 0.004867605105165161
381 0.002852806892061712 0.001973718534780174 0.012914120423045388
541 0.00031133693178810886 0.0012539306945022794 0.0029071892488487083
550 3.6762388166493133e-06 0.006946973024061357 0.004925479074408417
2 0.016062233153015498 0.0012984075224414951 -0.008498447848821523
78 0.007457579220176796 0.013790312427531055 0.02415537626367894
576 0.004534084563390154 0.0014887424628287579 -0.009366492341452337
551 -0.01967003835753678 -0.015160877239590025 0.0031575401887363103
151 0.004674085366217685 0.006664695476427824 -0.0017796664675798447
522 0.011135641804793317 0.001802349589937568 0.006420241726247039
558 -0.020444537639988925 0.02956780628005719 0.02536797045172696
543 -0.00903358113395705 0.0031308165376701335 0.0006307507125863844
77 -0.0020864297834302585 0.009022345245444688 0.018670113927050692
552 0.01027614774332717 0.010646936759422876 -0.004972763888214294
153 -0.0002093392491700591 0.008562066666566486 -0.002485101550498627
575 -0.004804742919611663 -0.0035709528929230233 -0.004053580716054304
304 0.0011414449200648055 0.0014350517746837437 -0.004486452066443176
542 0.024836097205413077 -0.004043701410814571 0.008277523435160953
574 0.00319080687513626 -0.005272058531113206 -0.007485813678655348
1 -0.002384667332229832 -0.0005571808867072535 0.007137264188674367
311 0.01191066004235391 -0.009988642505887315 -0.0004704302405924682
3 0.0015143470034657777 0.004474915392608455 -0.0004237917582688067
306 0.0044173896031392025 0.02636097766462595 -0.02192182651118594
310 0.0025529649104061216 -0.0034839463285488937 -0.0014954725476702525
7 0.00024105196939099623 -0.005891473231465648 0.010735507839255311
305 0.008627601638734814 -0.010225931205397519 0.002808652817527787
8 0.0005313579015920408 0.0065999851472795 -0.001107259330255703
131 0.00473507664794454 0.0015484756357952401 0.0060389836641505795
32 0.00783095770016423 0.019565545411552983 0.011440686327847768
132 -0.00189502517935334 0.004740714824390833 -0.007927270543159415
557 0.009876162376259533 0.007472972248778278 0.0005223397662130901
449 -0.0040940842977144 0.011962204060187333 -0.022244373770507562
409 0.003694012127309029 -0.0012057327570846714 -0.0007957076971898343
184 -0.004142823534319459 0.0013684693821666388 0.006951019887352752
410 0.0016686772509168777 -0.017684397080580984 -0.00016982164143727546
445 0.0013617957171047099 0.0013103683161125063 0.0041925390765924775
154 0.0005611529490724056 -0.006971802528480886 -0.002037932021279661
79 0.004463290353870238 -0.001357700356196379 0.0009412392184863922
130 0.0027705297847909387 0.0004112933208356916 -0.007615657155223578
194 -0.013485652770499758 -0.014567771503703131 -0.003916266907707163
193 -0.00026928099266968847 -0.005549832661004081 -0.003642963368181681
196 -0.0008453353063926454 0.00025510636728369224 0.002903034511480178
195 0.003960166842001078 0.003480304177514679 -0.015165200826509642
499 0.0002088547677070824 0.004531046380957615 -0.0048465028573815285
233 -0.010325417784806872 -0.004825010625735937 0.011219563895700894
598 0.00012388275018571668 0.0028915347173106417 0.0016241827716650713
333 -0.019719834283423353 0.03112582893608665 0.025730989117199995
197 -0.015983030212322724 0.00083107924214544 0.03660186025847131
234 -0.01272406236297139 -0.01139060706379173 0.0029845162283600513
402 0.0015235260798572388 0.011549037298650994 -0.03501320658114959
81 -0.026365175112661628 -0.007407110830812943 0.006028609300297978
511 0.0004893993749917028 -0.00336456030009088 -0.012228696192548712
446 -0.006116103989470865 0.005714663897677628 0.010423143012843757
599 -0.00691526845570167 0.0077633385277939585 0.0023768117093277744
447 -0.0038129844249928835 0.015007337706163975 -0.03165556617918124
9 0.011823107894514769 -0.009828832072217129 0.010673695423215335
198 -0.00762957522797068 -0.024502404791790455 0.032319945126758995
232 -0.004652807452944237 0.0015456933258992981 0.006009740488273129
600 -0.0028672709231260993 0.007639532986469898 -0.016388910728051587
186 0.003160491831330664 -0.0014682251502060285 -0.00047376992287230415
401 -0.007812383227686298 -0.0007565329839895242 0.004887761898173174
331 -0.0012123512033672844 0.007075930893265625 0.0029212040172900567
80 0.014784070618372416 0.001795796605552589 -0.00969488077087696
155 -0.025914564215448417 0.014703442911723952 0.0075474861503237066
512 0.028629631178223185 -0.0004511798810488249 -0.024472854802355382
400 0.0007742776960231637 -0.0006640790937862804 0.0006461842165603168
332 0.00015308501997186034 0.013476636482338263 0.0035544503600530263
411 0.003741776017961094 -0.008651752214788139 -0.009352018759350824
500 0.01193094641124218 0.010461426470114589 0.0017039106216422278
345 0.006551630750197717 0.011242920369158504 -0.00611786222310741
478 -0.00037549440003212947 0.0009197539181808458 0.0031212421171803164
489 0.007728131587821495 -0.0009499350509327699 0.006864580019527625
405 0.009722963512921257 0.009380622155314176 -0.002196006693603879
250 -0.002290643116810247 0.0006481769830532935 -0.0021241567504103644
202 0.002686167289850391 0.0025246785295107363 -0.009409170133470248
368 0.0074601826614300835 0.008530729912160303 -0.022394379363788085
192 -0.002607810361564699 0.010304646379326684 -0.0012687384616396475
283 0.0010383630922638641 0.0023267734462666155 -0.0025516303783759443
204 0.0025318669957444975 0.0013437421175985988 0.0001054003094641317
191 0.00039765494362892657 -0.0006979826296775203 -8.80946435394912e-05
252 0.005745998151807706 0.0077626174976841555 -0.009052859943037998
284 -0.021359777034109878 -0.01685834088337017 0.02889850641872609
501 0.0007432581605301265 0.008759387633397096 0.000522836080556794
561 0.00278990168302706 -0.009941483833063144 0.007354615722297289
190 0.0005749177679630125 0.0009178147745388431 -0.00018447345822919034
55 -0.0035498467080181634 0.0009791222075175368 0.0033421211512824644
480 0.006615366543640899 -0.008007363763841405 0.002286156755217236
367 -0.0010617689507515786 0.0008462425775079087 -0.00043705372690070355
479 -0.008471559449534344 -0.0015476407425364979 0.015281017768315995
227 0.0011588398123293096 -0.004484094069898262 0.027138369692691018
251 -0.012673424760738515 -0.008913099807771314 -0.019606434518350577
559 -0.0028451277790657475 -0.002135245776392445 -0.0021417638205846177
344 -0.004193233335266719 0.004718073223896846 -0.008411161279799812
404 0.007586924906923146 -0.011783724070845528 0.002503827516171457
471 0.008515459987059213 -0.017107823068606004 0.012406914426077635
560 -0.013117764073079812 -0.008990003160507258 -0.004634283535305101
403 0.0004512797181412378 -0.0013788512845031992 -0.0014465404492869803
343 0.0048978579893029115 0.006034438879090866 0.0009429708822308549
469 -0.003386971904489088 -0.00044101639200250605 0.00359541908976642
285 0.024629324156256332 -0.020233832707667942 -0.018586320803877048
95 0.004678650077832746 0.019234042467645273 0.0042129294075322725
369 0.012315936884025956 0.01493323902080577 -0.03439917339254273
203 -0.0033323015258721906 0.002007083104339218 -0.0018363890355478979
129 -0.005555560621823004 0.0016212981497296139 -0.006391407133514811
487 0.008480933972165582 -0.004538156878684676 0.0022814336337223366
470 -0.016146387762595926 0.015251414084920301 0.00805743169979298
473 0.004741121301800847 0.023742562326395322 0.0012459041637966086
226 0.0025392861538545484 0.00041122026066402727 -9.110192572501067e-05
513 -0.024349507393877902 0.014834417828678703 -0.006767507722986631
246 0.005452656978231997 -0.013429488746896074 0.00860089210008976
265 -0.0011650913262148735 -0.0034334196906236035 -0.0011459486047838377
569 0.011207463914327894 -0.019049759912113707 -0.003544117305663701
281 0.0033729131597628184 -0.0007077746689456429 0.0005656504353783168
568 0.0022603948065357924 0.00048416784979580293 -3.9120463022328484e-05
217 -0.0006520620772128036 -0.006624938029317123 0.0007593148721506162
245 -0.004827034598070785 0.0072419229344476265 -0.019419821299691078
464 -0.0053358321911529324 -0.012609114803567365 -0.0016118750216055344
219 -0.0064923270099188825 -0.0009885258286392764 -0.0018478143068807581
394 -0.00169648501479212 -0.0021910007092047355 0.002593329176088089
100 0.0025798419406194368 0.0022663335066869074 -0.0006896423059412907
463 -0.00417986047444677 0.0049466074265557426 0.005312919345697756
334 0.006641130196607612 -0.0014266844844906615 -0.0031768177869144396
148 0.0076284924018691054 0.0020105296146982975 -0.0014435097553359645
149 0.0015847935047489223 -0.003363940162810508 -0.017193124772024747
280 0.0019096786747593664 -0.006845862737163779 -0.00036225376156196474
282 0.00413215536591224 -0.007847288699071506 -0.01343732768574832
396 0.005623083516294255 -0.00035490548958341627 -0.013364129916559048
465 0.011230825432260502 -0.015856076292156008 0.013477685422580937
570 -0.0037202261530450906 -0.02246269339042883 0.006453134089791528
336 -0.00729250857796682 -0.006262405595849679 0.018082959280479722
218 0.004694665362876845 -0.01651603868033674 0.011945849924721837
57 -0.020163589502653886 -0.001363657172144735 -0.009296620900335967
266 0.006811399048255076 -0.005587671257662734 -0.01437639584674162
101 0.0018879216592121667 0.009904351155646593 0.0061691800033853465
267 0.0027922635623649607 0.011040050101680117 0.004038319509165452
395 -0.0015503880958103588 -0.013462226853999181 -0.00506393639243036
167 0.007982939934808218 0.002975948078842659 -0.023002311306039237
244 0.005383034214894588 0.0010848520759434994 0.001121266023229483
423 -0.009891402153772315 -0.025963961612263955 0.016659686440692493
625 -0.00560579142543009 -0.0032155889241689377 0.004323814797306511
627 0.034096863560788795 -0.022641139876694905 -0.00835491192419697
102 -0.0009225670391682092 -0.010823111790346052 -0.014380334366725995
626 0.010925098431908128 -0.006543032556820052 -0.014630226895233979
56 -0.0044110073384150805 0.007987542026085315 -0.005492646071278103
506 0.0032170274447645896 -0.009975618070574375 -0.014190018060074059
505 0.006170768082354977 -0.004728187252026746 -0.0034528988468942273
168 0.00537064080099247 0.004082949834668194 -0.009945778831457246
166 0.003689007811538521 0.00508929034558846 -0.001960732892099151
488 0.009284393084108155 -0.003710204322137697 -0.004122521125957771
421 0.001013250163747917 0.0001029349185645191 -0.0015496359065476316
161 -0.03483512265216574 -0.005963391670469925 0.017493248577034576
525 0.005572471520341974 -0.005356963020424675 0.009593019463558918
566 0.004602935981792588 0.0035761351030398456 0.027107802957349974
429 0.01902169718285167 -0.009152364770224042 -0.012009760420718702
556 0.002316702879965326 0.004830801796866782 0.00011028344501911306
288 -0.013506820454660107 0.008192764674902923 0.002779330891285232
362 0.0041263763870117535 0.0051437053582446424 0.011012302586069923
31 -0.006333360047917073 -0.005113999983421139 -0.0027965388540323074
287 -0.00028108573527571817 0.008684888312596168 -0.015432606953179684
565 0.001296192947277735 -0.0003666232223436652 -0.0021783519586116794
567 0.0018642297281656023 0.0076493646402984745 -0.002735376820152261
532 0.001088315014955795 0.00418899319361687 -0.0004063426899620546
19 0.00546231782196832 -0.0007289868751743087 -0.0022484822524634616
534 -0.0032539964804008063 -0.0004692737131840072 -0.0030338763004673502
276 0.0116840898138605 0.005718494646561579 -0.012290377680063734
162 0.003396180374304934 0.026447726236485725 0.009117444852786111
448 0.0013040465691176012 -0.0026516100480979874 -0.003882283335406551
428 -0.0034159851270818453 -0.025321872033283923 -0.0018911210470306525
476 -0.028498801340236697 -0.013379551936599366 0.032045946005245504
523 0.004456421948487965 -0.006960523087699321 7.549113452169438e-06
427 0.0011589591423596523 -0.0037375677805416003 -0.0034011440389123933
20 0.017502131999177533 0.0007373789587779891 0.006409219604229685
160 -0.0025509745089563806 0.0032707410361592676 0.0008319737841781568
286 0.0005532918974852754 0.001878630061133285 -0.0033476212251940204
21 0.00036064413445051466 0.010875136407390747 -0.009698004624156134
33 0.014618331911330384 -0.00753136386571338 0.03148240634573213
215 -0.005904194645346161 -0.011213674084054446 0.015512372396586151
450 -0.015613168287854846 -0.01834536022521402 0.007585404939274963
275 0.004089434362928781 0.004005944120165805 -0.005964441156559411
477 -0.010253240946227645 0.008041320982185185 -0.011236533316545708
361 0.0017577801921868847 -0.0003323978098846995 0.0036433013261589426
524 0.006529232177523135 -0.016074700218902598 -0.0015259224341500417
274 0.0019922815092195713 -0.0002758098232152559 -0.0012232145776657764
475 -0.008986299122769409 0.0015574370422470531 0.00631417452119065
533 0.007387786602688086 0.008833609344952977 0.0015977683020118316
507 0.0071371827925846 -0.0015463683564702106 0.010919739503919253
324 0.01726909093488553 0.009464843869671884 0.008494461514778652
583 -0.0057472828212795 0.0005936100712626702 -0.0026365090309498317
134 0.012905829507738525 -0.0071629521692073705 0.009276339933225146
115 0.0012990878190587312 -0.004563681565718509 -0.0017266009646462984
85 0.005217916374581003 -0.0038780771586282535 -0.0007878899109679271
584 -0.0054216473196410245 -0.004921228636151978 -0.014472548344823258
156 -0.007852599030430393 -0.0018632717728768234 -0.00043740310274301966
118 -0.0030865106931746607 0.0026579384815334293 0.0009496236996530214
339 0.006993367306882431 0.01258488309399634 -0.001076281471468231
603 -0.01810931607264496 0.0045285513123811925 -0.011237194928343887
117 0.0045675950788547585 -0.001412293119570587 0.000507503476532761
468 -0.0018352406475430183 0.0004743311770444793 0.004745894613960588
86 0.005994316056367823 -0.00519213412674241 -0.016639392856148287
601 -0.006252713785045912 0.0010782715320665028 0.007203083431525363
63 0.0038870681657085654 -0.014593536578328587 -0.013089748993667421
444 -0.01739150962273895 0.024097041009667124 0.009896260361731262
585 -0.012190555483930957 0.011635070052670414 -0.00451701883802565
466 0.007397315934703289 0.0008820807337868813 0.006967726024987395
554 0.011344415946084261 -0.004450447336564813 0.0038145739673605726
509 0.021014160336745965 -0.007521391649638955 -0.0018759138654181739
242 0.0030948966953728008 -0.004732829662560409 0.0003651443505796729
120 0.004417694841358509 0.01030728112787976 0.0062463374768099685
338 0.013811489992840462 -0.011577589786553748 0.0053832887916754335
62 -0.0035865557629692754 -0.0013968612331376853 -0.0064575960599783455
87 0.009202729302388293 -0.003598542478497231 0.008267145670863311
602 0.030108058111722832 0.012607943109365763 0.004281592366247215
243 0.0062066722413619 -0.0018980362204736117 0.03521885738904443
442 -0.0051915661050406054 0.004890194560972105 -0.004215966833406436
337 -0.003296385355141147 -0.0015599516902115806 -0.00268363080929955
510 0.0006451090355353303 0.021429683972073302 0.004942108890924494
135 -0.0004044665769887783 -0.0016348920390248263 -0.0034870558719044065
241 0.003420506363470872 -0.0044324844952554785 0.0015361881122102636
553 -0.0068847136803882655 0.0034079071810273628 0.008632763078575668
61 -0.00261288464343308 -0.010921386840995317 -0.001478181646010142
133 -0.00047687215395099674 -0.0014431485302687358 -0.0017716474416639809
555 -0.006937334339449368 -0.007348917240972306 -0.003393808158055331
443 0.024129768212103404 -0.004024145765895573 -0.004336352235727509
467 0.01180799845244649 -0.008616836258564721 0.008922490829429062
119 0.004012896669593424 -0.006401419049006613 -0.005228178675099386
484 0.004496717357593252 0.00033510727988892233 -0.0020359903112864373
508 0.0015867180001400566 0.00019429283870662367 0.0015177214322998943
472 -0.002077962111175536 -0.0043968447681854 -0.0018862967252774615
207 6.65544870464757e-05 -0.006497333944951879 0.005188527902485628
315 -0.006980878995476223 -0.017948745223787612 0.010453818389475691
116 0.001415422498150108 -0.002200960174386647 0.002475429932384454
408 0.014805127769440794 -0.01307299350289469 0.005041097615613436
433 0.001995780752751226 0.0008207261234033793 0.0031177319874240465
206 0.0059974363185964115 -0.0020170210638611767 -0.006699523048779965
459 0.013048624100214287 -0.023698048962148752 -0.010236416484743901
94 0.0021424398455608417 0.00022686626017203628 -0.002065346003694952
538 0.007516157264285591 -0.004973312226880405 0.0005235872180040497
144 0.0049688165353650535 0.003890230978591116 -0.0011450863040637174
407 -0.01170129485983706 0.0006586345175783028 0.01992774652834449
434 0.0018858498412600382 0.0008384104141483979 0.003643769213700718
142 0.003914696532436756 0.006259100210676289 0.0012753140070180908
483 -0.006000637040911674 0.0137441954749638 -0.007359572601692257
390 0.004374534598082982 -0.026258240613079856 0.007726262213066736
406 0.0007498980032826109 0.0027905421763217957 0.0045424082812200416
457 0.004780183083443431 -0.002899154951682607 -0.0063154486715470545
537 -0.004455997455069243 -0.002297752936638967 -0.012183667780794325
540 0.012869681645968882 0.03123627531368572 0.007417500124658404
389 0.013889733986503647 0.009278660775000475 0.00279402744464842
257 -0.017404074317234845 -0.018005911071127482 -0.012698139809386883
474 0.0052749409036474655 0.009867545496245692 -0.00011247588574458747
258 0.009234421972976255 -0.0010908988818825647 0.002711862256941403
34 -0.0004177567528497116 -0.003253175139475129 -0.0033974741097124945
539 0.012682017453469337 0.022114517062676566 0.00339370588618532
256 0.0035335026339798213 -0.002897561231314103 -0.0017643785095355143
36 -0.01002605257151114 -0.016320725192500937 -0.015998514197327576
205 0.005150435101957257 -0.0026662673731215752 -0.006925906191832998
35 0.008147190179072197 0.003735907951697524 0.00782515439197495
388 0.0007433567763689295 -0.005664940691645488 -0.002966166806743523
486 -0.0026411844491599245 0.0005112354386027442 0.014425140098929088
143 0.006056491406846157 0.0029333108204582735 -0.010056235992715334
458 0.0004251248200610385 0.017197948152692537 0.01482022734574339
96 0.003293077433736072 0.022306000436810306 0.010932188083415732
313 0.0021542016188795922 0.00131630815365559 -0.0018205608121701377
314 0.005427959891798961 0.00727980374928563 0.02076535386645996
578 -0.0013211457031563662 0.0008941317808609367 0.011550369557147845
613 0.002245764879048775 0.0020175573529915302 -0.0008820903692698819
363 -0.002276819355962215 -0.003907784994636774 -0.004401123598065575
414 0.0022214254937085705 0.008414625979161539 -0.007081266600597001
180 0.011937434148556433 0.012899271087063818 -0.006444834126309291
413 0.0003695736155618768 0.005716967612362879 -0.005427568959555017
68 0.0014158899813303677 0.003860826464570391 -0.013639075025818206
454 0.003256045458599162 -0.003779068867787206 0.0004498857970849231
392 -0.01852675739918627 0.018442814273747568 -0.010669515333687679
69 -0.00884549800920019 -0.009513257831471644 0.016268439725864253
105 -0.0018861256562348247 0.0035764880414992715 0.017716219320821968
179 -0.013638650250696235 0.015836677853661985 0.0008126810453502657
577 -0.0007422293643971979 0.0009892978028032537 0.0018269699761345357
615 0.009231207244610582 0.0029267613810880786 -0.02119850570574833
158 -0.008389722681984938 -0.0074199611280173 0.03387923489153516
356 -0.0002861877395722842 -0.003754213099771653 0.00875115559323389
393 -0.003445135722404967 0.010795447036471404 -0.00675488731743854
290 0.0014093804918440935 0.004684593056943275 -0.029200958723601286
159 -0.02945800547871704 -0.01349523123269369 -0.0031474365999994477
104 -0.01330100691422323 -0.004296291864132767 0.0056817886212275764
614 -0.00873435236651172 -0.00839608846628683 0.022929284159641957
357 0.006045152826656279 -0.018889269552723784 0.024894969570344563
391 0.0011247140197388715 -0.0009931760353191102 0.005365183566695179
103 -0.003932070750155029 -0.002872908402732462 0.0028419590511980686
289 -0.001187144598642748 -0.003706597373835402 0.0017456300245092917
67 0.001117566577980532 0.011348624520824241 0.004243231143736501
535 0.00017969729331601003 0.0021929961878820424 -0.0006809517110566471
606 0.0034949293417681094 -0.008903801359336175 0.006837507668781272
355 0.0008452445908529531 -0.0013504743724403712 0.0019642315372709455
178 -0.0028483654048355876 0.0024333155624744343 -0.0029120679797277724
291 -0.011161689784866917 0.0016888369524625585 0.002607779643405432
604 -0.002335812174040518 0.005639624928318134 0.0018161517655503208
157 0.00021433585632493966 -0.0029178004113964225 0.002272306837438938
605 -0.01017500526821408 -0.0028335872622702748 -0.004007778540661356
412 0.006667771931180892 0.005489365630386324 -0.006968861812615019
456 -0.007084895502526274 -0.005623084671776467 -0.0038793873891888125
579 0.005599850268193496 0.007679968534206999 5.1167282393432524e-05
482 -0.006556680152970621 0.017254278796334167 -0.014405749261845489
335 0.00972147032633307 0.005575936392558919 -0.00862159829149171
322 0.0019384539739152663 0.004484620900736303 -0.00231782790828626
455 -0.011686612583337948 0.004787212522753711 -0.0007790924069516179
536 -0.0009638526319385149 0.005581213120192721 -0.011012614972479254
481 -0.0015312830181899149 0.004795311148354428 0.00495920428163501
519 -0.003510771364983484 0.007539684804090785 -0.006151739674282945
30 0.01405898846981406 -0.0023097424767430184 -0.00019892205883083203
28 -0.0021957628655887313 -0.0009182724287022962 0.0009998597400710592
518 0.0018333600689630957 -0.006954490091827651 -0.008828452109578073
170 -0.005857018121506773 0.0037136023352919026 0.014460309307049217
52 0.0006910205378043157 -0.0007329848061554037 -0.006017265995588587
64 -0.0029170892734439544 -0.0021700663377667143 0.005040352378952864
517 0.000866545625104532 0.004754807374696687 -0.004720833282267518
54 -0.0063618658723746686 0.02565181941589366 -0.008283600967482476
216 -0.017174612013035478 0.002248015431893386 0.029537351369364792
181 0.002381173355181917 -0.003893544089537338 0.0018759950882542198
504 0.008227817453589999 -0.0021590558460262304 0.010575696397117
352 -0.001766225705618497 0.00016285195274946061 -0.00517394282169689
546 -0.01492316457581647 0.02252165446032143 -0.03584361325764699
182 -0.002756414263272221 -0.02244818374538573 0.005763207466180457
169 0.001963521620082163 0.0030801375025961064 -0.010494314367463895
47 0.0058622793015369835 -0.009758715329146078 -0.022156526869170336
29 -0.017288610379561142 -0.010302655913897433 -0.01607331903982847
74 -0.0005527334293670496 -0.0023438942542238616 0.0016277900629934566
65 0.01638006315641007 0.013529503479370151 0.011518631421427374
53 0.022520735569732556 0.0011889947782439904 0.013643909244727888
49 0.005612021126105681 -0.00015831845090230254 7.543019454370133e-05
48 0.021529403993596524 -0.012651207154480659 0.019717145412663704
545 0.00199097986720199 -0.005562469675621938 0.02500223260132995
73 0.00273631601100749 -0.0035040072153508187 0.0007261886846234899
46 -0.00019564204519226824 -0.0018870601174474139 0.004318371619212185
544 0.0016516726378820097 0.005127923456424663 0.0015846765149155448
502 0.0010669145636147401 -0.004838680535060041 -0.0011502226610671906
503 0.01542471455065166 0.006006323782906915 0.017744714023570366
353 0.006373753259960348 -0.005200914943785377 0.01527367519956216
66 -0.013961921011019916 -0.009838580839490064 0.005366015825323945
183 -0.014938379039108987 0.005567678915567094 0.0019271142810590267
609 -0.01782682611553038 0.008355002851762378 0.02030831742935469
51 0.015438773348615136 -0.018439742983207615 -0.0047080603571703515
75 -0.012535049147140726 -0.017273918590405567 0.010355123184271314
607 0.0012338039256783128 0.0025227978057999864 0.0034149167314658766
354 0.0022688731715566584 0.0043311631246869585 -0.009900273890263258
269 0.0046180259870210365 -0.008266769478795956 0.015053216873429778
171 0.012127230321888775 0.01912044869779189 -0.010271466126896146
323 0.007522667793277182 0.0020656966535895736 -0.001523626066556989
608 0.013922286850564245 -0.0006880065384280149 0.014499992558589166
214 0.0027064145288175226 -0.0017706603241370677 -0.0039805212051891425
611 0.020273679536459324 0.008382489109722413 -0.031156150355821293
106 0.0016183613582045635 0.006832721856894544 -0.0030047852128733347
436 0.0021927326486813493 -0.0020014556887628294 0.006472744342380035
493 -0.003445421827037325 0.0025088865846603814 -0.008043779960100278
347 -0.02583246587063115 -0.000373958774479548 0.0035910984293588636
346 -0.0008058032716199176 -0.006384269281808137 0.002249408213693366
495 0.01004672716144909 0.0012873907317960886 -0.010390453067277889
430 0.0009600526258426653 0.0027828395738423587 0.001161314516708527
300 0.017184558747387755 0.01912273179799091 -0.008430676393126788
527 -0.009923249263798044 -0.006356024473101668 0.0037819741673724024
494 0.005419246610432346 -0.001698721554739604 -0.01228727736770404
108 0.00041305274865020787 0.015824685181955976 -0.012020274506787288
342 -0.0064745150059680465 -0.009937738869336039 0.011482403221924823
341 0.002095402540646396 0.0019295869114925178 -0.010530188480538213
110 -0.019783920475908497 0.0005840844035651715 -0.009197913832752445
111 0.015833762707876578 0.007616755076308945 0.02058201178022544
438 -0.00013400497371708877 -0.007032258608759249 0.01082823491598579
340 -0.002566138842063698 -0.0016322456104317046 0.0027001079383517012
437 0.0036138677352042453 -0.0003069841170231741 0.005218180073873246
526 -0.0032221910323290636 0.0025236864506198373 0.0003471890002384213
426 0.014401613309940553 -0.0016224963906457082 0.007141889072348644
107 0.005548368816746571 0.001011824380857677 0.014234422792019131
124 -0.00011864410937854782 0.006644906096332654 0.0008188742433458125
348 0.0047316816076545054 3.4036487802970906e-05 0.0025892197919888727
383 0.003835086714138106 -0.011469652688686 -0.009473862321845468
528 -0.01012110758252924 -0.009438006868463595 0.003051773256836226
431 -0.00011485448307129538 0.007684580654082612 -0.011616157323379435
278 -0.01407585655429067 -0.0038494964563124162 -0.00404396567750811
610 0.001663335423549891 -3.053088424226204e-05 0.0018547983256049349
126 0.00017693890197201682 -0.0018636392340026058 0.018279552782527613
109 -0.00196887304914497 -0.008496113816469843 0.0007941421362633016
125 -0.008479745052860886 -0.009458355632597809 -0.00020685083630023673
277 -0.00534259370561148 -0.0041043822169060645 0.0003150153892327173
612 -0.007884359317821898 -0.0008452246456552671 0.021208073586000385
452 -0.011904957698204226 0.010305394189660382 -0.010925219758617492
279 -0.0021244080450784956 -0.005599129797763766 0.012156748623826851
424 -0.0008335801838056593 0.0007646665416313179 -0.000731708436241812
451 -0.006990557501109969 -0.0025190266083790704 -0.0020042113508001043
485 0.012839631037200027 -0.012596625878788131 -0.008418441863148161
453 0.006803263926230153 -0.0014814747754203783 -0.019797692746894607
432 0.012097085165152998 0.016417770317426247 -0.013553710121852303
563 0.009860570440874098 -0.005867651791125251 0.022692788921730447
359 0.020885828258121356 -0.014051433172292337 -0.0011237143583263949
360 0.006824344248437219 0.008810754201568103 0.000573096998354845
176 0.005843878965525192 -0.005059336320145194 -0.003604153753471941
351 -0.007307755734669688 -2.019861033248589e-05 0.003773641682782567
71 0.021198919941159498 -0.0021284966475046893 0.03010621653987141
235 -0.002372716572501547 -0.006935167581334866 0.0016796395796996808
415 0.0014615036671981358 -0.001058244327723392 0.007878619703722677
23 0.013794774184906275 0.014351244917354043 -0.011779740744715259
10 -0.006456615789822201 0.0045719564924073626 0.002010137542609902
97 0.0015145692626165185 -0.0038553267250332167 0.00040558253773845205
564 -0.014888161686431929 0.004641875403478178 0.008499169693927033
11 -0.005662628763684573 0.011934540495745764 0.0012193523521907062
72 0.01064792591255923 0.008006717802464416 -0.007162002640733818
349 -0.005365178136832579 -0.006706797531057312 0.0032395043761195034
596 -0.02115898708597825 -0.001677668567113843 -0.010001964572847287
562 0.0036612284804733272 0.0007305025464449657 0.005660707006232738
39 -0.024018439559548167 -0.01481196980036402 0.03181565346625759
435 0.0005337812634412015 -0.003007888702108523 -0.014582780358740124
597 0.0034719811971182612 -0.00262161893343066 -0.0044047329183547965
416 0.0013652093649120026 -0.007890193591266678 -0.003910801691935926
38 0.010587670253969783 0.03444277352699531 0.022766962909453427
358 -0.001164305752102738 -0.0008473103540904949 0.000941381696020252
99 -0.0038863680878382456 -0.013465454191670941 -0.016988399136979932
417 0.0017852760031305242 0.003996047209560988 0.012853024855093076
22 0.0011450573966106318 -0.0019791996149048697 -0.0015050538060961515
70 -0.00415692268914084 0.002322992901169488 -0.00031210604688014536
37 -0.0033502069413149454 0.004550025669320451 -0.0007403179360484442
350 -0.009515813453781176 0.008911002541795896 -0.012975552619296603
299 -0.008332360433389833 0.012371936124564553 0.005800388943242623
595 -0.0010174686470859563 0.008375859901478353 -0.0018946150507675925
12 -0.007928357141140917 0.019140581719534533 -0.00490514380606209
98 0.0031796338746673323 -0.0008398983734837442 0.005465971680753392
237 0.0058431589375759424 -0.010876199758171348 -0.00611025180413286
177 -0.009182421535094033 -0.008782493490870022 -0.001374273209471196
298 0.0005363567658167395 0.010440504280900934 -0.000603107484462276
548 1.3159898148809003e-05 0.0030252848268460986 0.006108412132886978
328 0.003628578339628913 -0.011669472417589585 -0.004457118181411079
136 -0.0016124587839563686 0.0017673661761528792 -0.0044767330569455
138 0.002298499871955075 -0.007143376653521436 0.011152554681769015
83 0.003275066656266838 -0.006824784262741465 -0.006729086248155437
189 -0.0045508684425710965 -0.0024745698166550806 0.003167849091308567
397 -0.000706792900727394 0.006552568042336349 -0.0004380443773360258
398 -0.011488092564117503 0.014941490812585074 -0.006050551134718064
84 0.006746092909975979 0.010189942988261294 -0.0238063309376898
270 -0.003282276097429546 -0.007005246305760869 0.01910783321264111
492 -0.012073264532950203 -0.00206864507882602 0.0015222808513657843
137 -0.0007512472876224619 0.003097640164666397 0.0052615925451580435
490 0.0010563776422168644 0.001129664402999947 -0.000554236947725232
187 -0.0021026663131811724 0.0014227463096197234 0.0020089513110869805
261 0.0022450828278178167 0.0052106676045688485 0.005291580267417634
24 0.01133328676929047 0.006134869417099535 -0.026819734120844544
622 -0.0032072865842593364 -0.0039027497606860134 0.009882747563794507
547 0.0025718446948787012 0.001610443193305875 -0.0034387674590641943
330 -0.0022257822037459996 0.011276999220978358 0.001874884126269925
588 -0.0005312714892403702 0.004160802193114343 -0.008965682379262716
549 0.002576102622025957 0.0022385700846956173 -0.008251254136139075
491 0.0039550330820811155 0.01914259206067309 -0.012499508025201616
221 0.0006366894202590811 -0.0028192794145229703 -0.0005687708028734891
82 0.003129314175420889 -0.005284527594526679 -0.002198571634760605
268 -0.0017348213683346153 0.0006934595095799003 -0.0012888059876742717
260 -0.006606578586581131 0.008598755682176029 0.008855006456995586
220 0.0012013449608350682 0.00043079887042274265 -0.0024012786765587562
222 -0.022499016749544444 0.001833409191075038 0.00043077005381030796
259 -0.004064186440250946 0.00796598308266031 0.0027549511426371784
623 -0.01011200462957853 -0.001970328460087792 -0.0049230865930519774
399 0.014486101113239273 0.01196872832667338 -0.033044088871902584
624 0.00586404595498628 0.003167164999640598 0.0034001031222429885
188 -0.007703359335382944 0.0014456742139691435 0.0012416959173598143
587 0.005104558059662098 -0.006011707285965732 -0.0023631916602211843
329 0.004730794184337003 -0.0183322140018061 -0.000961331892504532
15 -0.0022372559670424987 0.01254433279221581 -0.011514379553289577
60 -0.004286389929968176 -0.0005536066794505758 -0.017289955812760393
6 -0.005207243994843843 -0.0018220215395669034 -0.003746179305273551
239 0.007449704927142994 -0.009173868787173306 0.009122655936642174
378 0.00874497972312832 -0.0012644796354461844 -0.010887001018177734
43 -0.002386508137222616 0.0017097217803463442 -0.002980601400982144
580 -0.003571142615387135 0.0028191898028940903 6.255622674854801e-05
529 -0.0008218867547394707 0.0063449519029844925 0.000830638250816844
45 -0.006861531567267328 0.017080608096039996 -0.00987475445628506
377 0.009040038237120653 -0.006142003527516183 -0.0016919157380039906
44 -0.013794267887045299 0.0031319533101559476 0.021474007770658256
387 -0.0029014321145470214 0.013374198372864913 -0.004556669952247645
376 5.5329366706369966e-05 -0.0010338132296882686 -0.0006577392497057179
238 -0.004160749870833281 0.002974813315823936 -0.0012610496074291087
439 -0.0024701544464557916 0.0015428644080886106 6.3864193116641465e-06
531 -0.005877546313504731 0.006140006532916179 0.0004106895204053846
629 0.006858142909418267 0.005431670922670342 0.009085880979965454
530 0.00045506172168534114 0.009907760181998584 -0.003146869546882282
141 0.0031545095765103453 -0.0016566415100641762 -0.006016115764065671
296 -0.009565944484382546 -0.0016736854309667593 0.012375748627929518
255 0.004648683634237522 -0.004559775711691219 0.015419168083570581
253 -8.396349018631284e-06 -0.0006181032568450252 0.0028552020979213965
240 -0.011248008135021397 -0.003441842316539847 0.015861044205451275
4 -0.008740762155298164 -0.0018277870061834448 0.0003389190165664583
590 -0.00465620293966742 0.004038780606623023 -0.0021371210578444246
386 0.00024563616161467615 -0.0020618177552640766 -0.003184617147273228
630 -0.008254906416818976 0.013474912939644713 0.003384543378651822
5 0.001581462416993787 0.0022597081254181273 -0.0010518639903460264
297 0.00878164079813103 -0.009374007251493184 0.00465656170263102
152 0.007536235392672558 0.010868675217156622 -0.0012643405839992113
374 0.013259297865351311 0.004624182423495371 -0.017828216466735106
375 -0.018107382198427127 -0.009698705214541265 0.0061926869291533595
373 -0.0023229585770870795 0.0025473032046877597 -0.0031519297725017053
254 0.004824773733431316 -0.004159985440889812 0.01720553155205927
139 0.0036835119317899087 -3.014954062023572e-06 0.002403020162998841
295 -0.00748849297528508 -0.0026088389401454403 -0.000916035197418603
92 -0.006174610101304626 0.0066714639233379615 0.0038190276743290787
440 0.0017999326641257318 0.013464234713278173 0.034977244739756407
628 -0.0017172612834704321 0.0025478777642595246 0.004684762065984724
385 -0.003617330627052133 0.007591940433428282 -0.003556775155222442
140 0.0030616147400549672 -0.0016829229635818303 0.004090556049850848
91 0.0071976202956591006 0.00036753861344407054 0.005207156708543948
59 -0.0022129416238305744 -0.0013248950222056344 -0.004214609417242903
582 0.020268121684208863 -0.03052002514300177 0.005909164804767282
58 -0.0018692743695785988 0.0012387768529688239 -0.003603423011258435
581 -0.013316187905987363 0.009864797342318722 -0.013343334078876353
589 -0.0025221754274551917 0.0015010236491928345 -0.0006153050044879251
441 -0.010377697599826876 -0.01270438017163993 0.012611006662065126
93 0.006305542059760842 -0.0038235186834191756 0.01709009676598221
379 -0.002220895548810514 -0.006090609180171976 -0.0019329481249433247
50 0.021410313366606603 -0.02959302669384757 -0.008464484457887354
384 -0.00813434592906397 0.00021382857940678787 -0.012427483965942539
309 -0.009659718717401521 0.005707619286617058 -0.014301772620824674
164 -0.00697892001085851 0.009173817705767542 -0.013234676470567756
147 0.004652815274460842 0.004093100389845546 0.002328642812537955
223 -0.00194665085497478 0.0010950000176951915 0.0012661923779979489
619 0.00019761927936948055 0.002983893651731092 0.0018600424584983774
163 0.001287749072320653 0.005885400476916074 -0.010033898617965166
113 -0.0038370732062180607 0.004060726274996611 0.002670416831879697
303 -0.01648219622979844 -0.01793049818438486 -0.020258662865667826
514 -0.003463520506083722 -0.0030360204654248583 0.002278477925573589
273 0.013251751463451863 -0.010597018331412461 0.004433951857220635
165 -0.026513970063450278 0.0364095729724492 0.009184707505071981
225 -0.018317681265194927 -0.0027888334715975315 -0.009139544452226872
382 0.0012057863247696289 -6.668263270582088e-05 -0.007047458236139696
146 0.0019779644162171294 -0.01064929998983097 0.0035538663645656647
145 0.0059992613871689355 -0.004133069583158388 -0.0009142671149739636
307 -0.0010534618653003662 0.0032086359023754435 -0.00047681523555455205
372 0.0038020797388585194 -0.0164608403135615 -0.011572516481375717
301 0.005287199985197884 0.004196806744686912 0.0028057760295671866
370 -0.0003979533938939837 0.0002332519641306244 0.001229783142296706
114 0.025681305644477896 -0.005436734215888431 0.005194122257972663
321 -0.002085968495857677 -0.014372169220930296 -0.0018166066059944984
621 -0.0004893954342529817 0.01961619329428774 0.003945675598840242
516 -0.00030217097738132815 0.0001885548801362914 0.007392768545066748
112 0.002828367526879824 0.003487036111585718 -0.004493647332661035
308 -0.013758753592154085 0.0015329881789474735 -0.037912199999211145
271 -0.0022633246898383585 0.00011969784594735155 0.0008403348190172789
209 -0.014419033959305452 -0.008596697960563778 -0.00048321528269146946
515 -0.011919295506755741 -0.00480785696397746 -0.00220046082680627
185 0.0021486132499809285 -0.00012784385651698038 -0.0033089426144800958
302 -0.009013413262100084 0.014028205415745381 -0.011337013096859395
620 1.2240306946543039e-05 -0.003274957183706059 0.010877063207205684
208 -0.0033974687839109815 0.002470685210229141 0.001717489779655113
371 -0.0033995595262141564 0.009843190442508983 0.017622871330699282
320 -0.012756406703705514 -0.003603426544161631 0.01995368321269919
319 0.0014006329132343032 -0.0008285619654904349 0.0012123233035292358
425 -0.009188149817419021 -0.018729647564381363 0.004250017304269012
210 -0.0013084623273472576 -0.003872826957762286 -0.0006564816825605686
380 -0.009911676665071886 -0.009003701822011514 -0.01995211633168319
272 -0.007612573139850352 0.011083375879502127 -0.005458726278482776
41 0.006672682487830459 -0.008257606794755606 0.002122621099307704
224 0.007971009332755406 0.00854269355955809 -0.0005136253155305233
128 -0.006334406864322103 -0.008228299058306037 -0.01103652278487058
364 0.0017381075102824298 -0.0031454211418620866 0.0031026981660803215
16 -0.00045933054041851634 -0.0017826610150218003 0.005009631585840992
571 -0.005905504784762204 -0.005546299929849135 0.005983699374413922
325 0.0008269518360779387 0.002471297091385379 0.0018720688874849219
365 -0.013556305913868283 -0.010300840056718592 0.0036842613159461905
17 -0.0006880171610380489 0.0014386967920358496 0.0045619546088641475
327 0.00337399389181926 -0.013416136971955926 0.0168381314564086
201 0.002083597458131325 0.0017605946399123643 0.018757530314349253
123 -0.023231377095399162 -0.010431078659893702 -0.0035109054736024133
18 -5.4089491129838495e-05 -0.004369124512824658 0.000607341853482609
121 -0.006565634069434781 0.004353558469920121 0.0037788793642121636
592 -0.0007872689404021233 -0.00036426114429257637 0.00021678594012188108
200 0.005671227259087615 0.004493007770378967 -0.013838558209700756
127 0.002315650857185404 -0.0012953472996961885 0.004479047600483963
236 -0.009878006992238265 -0.0034203134574090927 0.008989211096936784
573 -0.013570251042233203 0.013494089743303397 -0.0009965578504243329
572 -0.01630561031955258 0.006936621599343346 -0.005356974974826946
90 0.013023245709443979 0.019106605073656205 -0.003486363233518279
42 -0.01057829862880408 -0.003950026090156407 0.007561944249680738
25 0.008986464681308357 -0.0024844081003222852 0.007957450278587479
366 -0.003785746366428922 -0.0047257282823484825 0.0004490538243898591
418 -0.003373544039441765 0.005653553858265574 0.007624234610816069
199 -0.0001630274387301254 -0.00542216003088255 -0.0026316677400191448
26 -0.01984039513420425 -0.003947719181495589 0.028867318325287317
122 0.011705756143669917 -0.007251529270577261 0.0028959569254142195
326 0.00483964667566602 0.008745021520599817 0.0038428180586312596
228 0.01573998632378236 -0.0223349945217345 -0.008283355307519618
27 -0.0018024262008587088 -0.006334325286346165 0.015400921697834986
460 -0.005162698479899076 -3.1008541396493546e-05 -0.004510963285867592
40 0.0012991503574274466 0.0027181077874871267 0.00794207700167519
461 0.004776748878004575 0.02189240832719743 0.013989486942659718
175 -0.002865238771945519 -0.004517654317871682 0.0001616617103841498
89 -0.02357174728408314 -0.02483728777524103 -0.008346302053888878
88 -0.004915615946833628 -0.007877526726145502 -0.0026190968690445043
420 -0.005240438304699245 0.0006393028147183022 -0.0026347163706252744
462 -0.004185306017597098 -0.002026109267226398 -0.003611695211660443
586 -0.0037904778544636357 -0.0024360180856889185 0.0018883497478832036
174 -0.015835733568304894 -0.01934624471000314 -0.03042813202072269
318 0.002522136966538883 0.004006711389739574 0.009525437870139165
262 0.0019134397071365137 0.005496546074693659 -0.004618536818168753
263 -0.0003320564061001966 0.007509074334942407 -0.00440557520104743
496 0.0035360584578184398 -0.0036965585062881264 0.0005015647898075302
618 -0.019783889411773867 -0.01100277113686875 -0.0005529942318600332
248 0.007673917860751394 0.0015257810413618921 -0.008944390575116864
13 -0.0020387082046982403 -0.00244384140787534 -0.0007378674154206471
316 -0.0005161751140153304 0.0021960946185903035 0.003143672647666871
419 -0.010487540077750917 0.0036046913910213153 -0.0019518490642001427
497 0.009722817133716678 -0.0015553113924960536 -0.00292922647206852
172 0.0014591898692900161 0.0028931959737803917 -0.003830390155208293
14 0.0027034206048169706 -0.001601641089235437 0.001027703800783739
212 0.013006589163878923 0.0018600805342648048 -0.025041065223447973
249 -0.002778652253307102 0.0019483904619232379 0.005839742820680205
617 0.0036796458632685084 0.0021440706249989763 0.006806682591648786
498 -0.0010906156798882586 -0.009899739910743898 -0.006647973674671655
229 -0.003198206136550583 -0.002845716279668305 0.0011744307924122532
616 -0.00860534733083165 -0.004906766011194809 0.003308559432823935
594 -0.0042194066121076295 0.005090911380076805 -0.0154144027408563
150 -0.007180051956902999 -0.009499979081820025 -0.020506977571007338
247 0.000915492465296191 0.0014024692127414082 -0.002921240462952317
317 0.0034996337425642573 -0.0008593068566270638 0.005513160566913953
422 -0.007075771256764067 -0.022154547318967228 0.011602994177384517
293 0.01474775713907501 -0.008882594968441846 -0.003349302251150694
294 0.0017465188433342757 -0.0024334100209752597 0.017944492917659226
292 0.007228751217365464 -0.0024449322445688794 -0.0009442134998679323
264 -0.0027771384037808965 0.004671803534160561 -0.006364429367780291
593 -0.005854943790013237 -0.008010566804985441 0.0029810568170610466
211 0.0029576739654819688 0.0037068391728890563 0.003038741708042396
230 -0.010831114216103045 -0.001010536203706373 -0.013455884364258026
231 0.010713028413616616 -0.016606731921370476 0.00018595180667319432
173 -0.011715515420465216 -0.008444048175734893 -0.030255617461123926
213 0.0047362328127871795 -0.0023762619995728418 -0.022356965666886462

Bonds

1 1 312 310
2 1 521 520
3 1 591 589
4 1 381 379
5 1 2 1
6 1 78 76
7 1 576 574
8 1 551 550
9 1 522 520
10 1 558 556
11 1 543 541
12 1 77 76
13 1 552 550
14 1 153 151
15 1 575 574
16 1 542 541
17 1 311 310
18 1 3 1
19 1 306 304
20 1 305 304
21 1 8 7
22 1 131 130
23 1 32 31
24 1 132 130
25 1 557 556
26 1 449 448
27 1 410 409
28 1 194 193
29 1 195 193
30 1 233 232
31 1 333 331
32 1 197 196
33 1 234 232
34 1 402 400
35 1 81 79
36 1 446 445
37 1 599 598
38 1 447 445
39 1 9 7
40 1 198 196
41 1 600 598
42 1 186 184
43 1 401 400
44 1 80 79
45 1 155 154
46 1 512 511
47 1 332 331
48 1 411 409
49 1 500 499
50 1 345 343
51 1 489 487
52 1 405 403
53 1 368 367
54 1 192 190
55 1 204 202
56 1 191 190
57 1 252 250
58 1 284 283
59 1 501 499
60 1 561 559
61 1 480 478
62 1 479 478
63 1 227 226
64 1 251 250
65 1 344 343
66 1 404 403
67 1 471 469
68 1 560 559
69 1 285 283
70 1 95 94
71 1 369 367
72 1 203 202
73 1 129 127
74 1 470 469
75 1 473 472
76 1 513 511
77 1 246 244
78 1 569 568
79 1 281 280
80 1 245 244
81 1 464 463
82 1 219 217
83 1 149 148
84 1 282 280
85 1 396 394
86 1 465 463
87 1 570 568
88 1 336 334
89 1 218 217
90 1 57 55
91 1 266 265
92 1 101 100
93 1 267 265
94 1 395 394
95 1 167 166
96 1 423 421
97 1 627 625
98 1 102 100
99 1 626 625
100 1 56 55
101 1 506 505
102 1 168 166
103 1 488 487
104 1 161 160
105 1 525 523
106 1 566 565
107 1 429 427
108 1 288 286
109 1 362 361
110 1 287 286
111 1 567 565
112 1 534 532
113 1 276 274
114 1 162 160
115 1 428 427
116 1 476 475
117 1 20 19
118 1 21 19
119 1 33 31
120 1 215 214
121 1 450 448
122 1 275 274
123 1 477 475
124 1 524 523
125 1 533 532
126 1 507 505
127 1 324 322
128 1 134 133
129 1 584 583
130 1 156 154
131 1 339 337
132 1 603 601
133 1 117 115
134 1 468 466
135 1 86 85
136 1 63 61
137 1 444 442
138 1 585 583
139 1 554 553
140 1 509 508
141 1 242 241
142 1 120 118
143 1 338 337
144 1 62 61
145 1 87 85
146 1 602 601
147 1 243 241
148 1 510 508
149 1 135 133
150 1 555 553
151 1 443 442
152 1 467 466
153 1 119 118
154 1 207 205
155 1 315 313
156 1 116 115
157 1 408 406
158 1 206 205
159 1 459 457
160 1 144 142
161 1 407 406
162 1 434 433
163 1 483 481
164 1 390 388
165 1 537 535
166 1 540 538
167 1 389 388
168 1 257 256
169 1 474 472
170 1 258 256
171 1 539 538
172 1 36 34
173 1 35 34
174 1 486 484
175 1 143 142
176 1 458 457
177 1 96 94
178 1 314 313
179 1 578 577
180 1 363 361
181 1 414 412
182 1 180 178
183 1 413 412
184 1 68 67
185 1 392 391
186 1 69 67
187 1 105 103
188 1 179 178
189 1 615 613
190 1 158 157
191 1 356 355
192 1 393 391
193 1 290 289
194 1 159 157
195 1 104 103
196 1 614 613
197 1 357 355
198 1 606 604
199 1 291 289
200 1 605 604
201 1 456 454
202 1 579 577
203 1 482 481
204 1 335 334
205 1 455 454
206 1 536 535
207 1 519 517
208 1 30 28
209 1 518 517
210 1 170 169
211 1 54 52
212 1 216 214
213 1 504 502
214 1 546 544
215 1 182 181
216 1 47 46
217 1 29 28
218 1 74 73
219 1 65 64
220 1 53 52
221 1 48 46
222 1 545 544
223 1 503 502
224 1 353 352
225 1 66 64
226 1 183 181
227 1 609 607
228 1 51 49
229 1 75 73
230 1 354 352
231 1 269 268
232 1 171 169
233 1 323 322
234 1 608 607
235 1 611 610
236 1 347 346
237 1 495 493
238 1 300 298
239 1 527 526
240 1 494 493
241 1 108 106
242 1 342 340
243 1 341 340
244 1 110 109
245 1 111 109
246 1 438 436
247 1 437 436
248 1 426 424
249 1 107 106
250 1 348 346
251 1 383 382
252 1 528 526
253 1 431 430
254 1 278 277
255 1 126 124
256 1 125 124
257 1 612 610
258 1 452 451
259 1 279 277
260 1 485 484
261 1 453 451
262 1 432 430
263 1 563 562
264 1 359 358
265 1 360 358
266 1 176 175
267 1 351 349
268 1 71 70
269 1 23 22
270 1 564 562
271 1 11 10
272 1 72 70
273 1 596 595
274 1 39 37
275 1 435 433
276 1 597 595
277 1 416 415
278 1 38 37
279 1 99 97
280 1 417 415
281 1 350 349
282 1 299 298
283 1 12 10
284 1 98 97
285 1 237 235
286 1 177 175
287 1 548 547
288 1 138 136
289 1 83 82
290 1 189 187
291 1 398 397
292 1 84 82
293 1 270 268
294 1 492 490
295 1 137 136
296 1 261 259
297 1 24 22
298 1 330 328
299 1 588 586
300 1 549 547
301 1 491 490
302 1 221 220
303 1 260 259
304 1 222 220
305 1 623 622
306 1 399 397
307 1 624 622
308 1 188 187
309 1 587 586
310 1 329 328
311 1 15 13
312 1 60 58
313 1 6 4
314 1 239 238
315 1 378 376
316 1 45 43
317 1 377 376
318 1 44 43
319 1 387 385
320 1 531 529
321 1 629 628
322 1 530 529
323 1 141 139
324 1 296 295
325 1 255 253
326 1 240 238
327 1 590 589
328 1 386 385
329 1 630 628
330 1 5 4
331 1 297 295
332 1 152 151
333 1 374 373
334 1 375 373
335 1 254 253
336 1 92 91
337 1 440 439
338 1 140 139
339 1 59 58
340 1 582 580
341 1 581 580
342 1 441 439
343 1 93 91
344 1 50 49
345 1 384 382
346 1 309 307
347 1 164 163
348 1 147 145
349 1 113 112
350 1 303 301
351 1 273 271
352 1 165 163
353 1 225 223
354 1 146 145
355 1 372 370
356 1 114 112
357 1 321 319
358 1 621 619
359 1 516 514
360 1 308 307
361 1 209 208
362 1 515 514
363 1 185 184
364 1 302 301
365 1 620 619
366 1 371 370
367 1 320 319
368 1 425 424
369 1 210 208
370 1 380 379
371 1 272 271
372 1 41 40
373 1 224 223
374 1 128 127
375 1 365 364
376 1 17 16
377 1 327 325
378 1 201 199
379 1 123 121
380 1 18 16
381 1 200 199
382 1 236 235
383 1 573 571
384 1 572 571
385 1 90 88
386 1 42 40
387 1 366 364
388 1 26 25
389 1 122 121
390 1 326 325
391 1 228 226
392 1 27 25
393 1 461 460
394 1 89 88
395 1 420 418
396 1 462 460
397 1 174 172
398 1 318 316
399 1 263 262
400 1 618 616
401 1 248 247
402 1 419 418
403 1 497 496
404 1 14 13
405 1 212 211
406 1 249 247
407 1 617 616
408 1 498 496
409 1 594 592
410 1 150 148
411 1 317 316
412 1 422 421
413 1 293 292
414 1 294 292
415 1 264 262
416 1 593 592
417 1 230 229
418 1 231 229
419 1 173 172
420 1 213 211

Angles

1 1 77 76 78
2 1 521 520 522
3 1 542 541 543
4 1 551 550 552
5 1 152 151 153
6 1 305 304 306
7 1 575 574 576
8 1 2 1 3
9 1 311 310 312
10 1 8 7 9
11 1 410 409 411
12 1 185 184 186
13 1 446 445 447
14 1 155 154 156
15 1 80 79 81
16 1 131 130 132
17 1 194 193 195
18 1 197 196 198
19 1 500 499 501
20 1 599 598 600
21 1 512 511 513
22 1 233 232 234
23 1 332 331 333
24 1 401 400 402
25 1 479 478 480
26 1 251 250 252
27 1 203 202 204
28 1 284 283 285
29 1 191 190 192
30 1 56 55 57
31 1 368 367 369
32 1 560 559 561
33 1 404 403 405
34 1 344 343 345
35 1 470 469 471
36 1 488 487 489
37 1 227 226 228
38 1 266 265 267
39 1 569 568 570
40 1 218 217 219
41 1 395 394 396
42 1 101 100 102
43 1 464 463 465
44 1 335 334 336
45 1 149 148 150
46 1 281 280 282
47 1 245 244 246
48 1 626 625 627
49 1 506 505 507
50 1 167 166 168
51 1 422 421 423
52 1 557 556 558
53 1 32 31 33
54 1 566 565 567
55 1 533 532 534
56 1 20 19 21
57 1 449 448 450
58 1 524 523 525
59 1 428 427 429
60 1 161 160 162
61 1 287 286 288
62 1 362 361 363
63 1 275 274 276
64 1 476 475 477
65 1 584 583 585
66 1 116 115 117
67 1 86 85 87
68 1 119 118 120
69 1 602 601 603
70 1 467 466 468
71 1 443 442 444
72 1 338 337 339
73 1 242 241 243
74 1 554 553 555
75 1 62 61 63
76 1 134 133 135
77 1 485 484 486
78 1 509 508 510
79 1 473 472 474
80 1 434 433 435
81 1 95 94 96
82 1 539 538 540
83 1 143 142 144
84 1 407 406 408
85 1 458 457 459
86 1 35 34 36
87 1 257 256 258
88 1 206 205 207
89 1 389 388 390
90 1 314 313 315
91 1 614 613 615
92 1 455 454 456
93 1 578 577 579
94 1 392 391 393
95 1 104 103 105
96 1 290 289 291
97 1 68 67 69
98 1 536 535 537
99 1 356 355 357
100 1 179 178 180
101 1 605 604 606
102 1 158 157 159
103 1 413 412 414
104 1 323 322 324
105 1 482 481 483
106 1 29 28 30
107 1 53 52 54
108 1 65 64 66
109 1 518 517 519
110 1 182 181 183
111 1 353 352 354
112 1 170 169 171
113 1 50 49 51
114 1 74 73 75
115 1 47 46 48
116 1 545 544 546
117 1 503 502 504
118 1 608 607 609
119 1 215 214 216
120 1 107 106 108
121 1 437 436 438
122 1 494 493 495
123 1 347 346 348
124 1 431 430 432
125 1 341 340 342
126 1 527 526 528
127 1 125 124 126
128 1 611 610 612
129 1 110 109 111
130 1 278 277 279
131 1 425 424 426
132 1 452 451 453
133 1 236 235 237
134 1 416 415 417
135 1 11 10 12
136 1 98 97 99
137 1 350 349 351
138 1 563 562 564
139 1 359 358 360
140 1 23 22 24
141 1 71 70 72
142 1 38 37 39
143 1 596 595 597
144 1 299 298 300
145 1 329 328 330
146 1 137 136 138
147 1 398 397 399
148 1 491 490 492
149 1 188 187 189
150 1 623 622 624
151 1 548 547 549
152 1 83 82 84
153 1 269 268 270
154 1 221 220 222
155 1 260 259 261
156 1 44 43 45
157 1 581 580 582
158 1 530 529 531
159 1 377 376 378
160 1 239 238 240
161 1 440 439 441
162 1 254 253 255
163 1 5 4 6
164 1 374 373 375
165 1 140 139 141
166 1 296 295 297
167 1 629 628 630
168 1 386 385 387
169 1 92 91 93
170 1 59 58 60
171 1 590 589 591
172 1 380 379 381
173 1 224 223 225
174 1 620 619 621
175 1 164 163 165
176 1 515 514 516
177 1 383 382 384
178 1 146 145 147
179 1 308 307 309
180 1 302 301 303
181 1 371 370 372
182 1 113 112 114
183 1 272 271 273
184 1 209 208 210
185 1 320 319 321
186 1 365 364 366
187 1 17 16 18
188 1 572 571 573
189 1 326 325 327
190 1 122 121 123
191 1 593 592 594
192 1 128 127 129
193 1 26 25 27
194 1 419 418 420
195 1 200 199 201
196 1 461 460 462
197 1 41 40 42
198 1 176 175 177
199 1 89 88 90
200 1 587 586 588
201 1 263 262 264
202 1 497 496 498
203 1 14 13 15
204 1 317 316 318
205 1 173 172 174
206 1 230 229 231
207 1 617 616 618
208 1 248 247 249
209 1 293 292 294
210 1 212 211 213
